     Program PWSCF v.6.5 starts on 22Aug2022 at 17: 9:59

     R & G space division:  proc/nbgrp/npool/nimage =       8
     Waiting for input...
     Reading input from standard input

     Current dimensions of program PWSCF are:
     Max number of different atomic species (ntypx) = 10
     Max number of k-points (npk) =  40000
     Max angular momentum in pseudopotentials (lmaxx) =  3
               file Al.pbesol-n-kjpaw_psl.1.0.0.UPF: wavefunction(s)  3S 3P renormalized
               file O.pbesol-n-kjpaw_psl.0.1.UPF: wavefunction(s)  2P renormalized

     bravais-lattice index     =            0
     lattice parameter (alat)  =      19.1327  a.u.
     unit-cell volume          =    1831.1486 (a.u.)^3
     number of atoms/cell      =           23
     number of atomic types    =            4
     number of electrons       =       288.00
     number of Kohn-Sham states=          173
     kinetic-energy cutoff     =     100.0000  Ry
     charge density cutoff     =     800.0000  Ry
     convergence threshold     =      1.0E-06
     mixing beta               =       0.4000
     number of iterations used =            8  plain     mixing
     Exchange-correlation= SLA  PW   PSX  PSC
                           (   1   4  10   8   0   0   0)

     celldm(1)=  19.132690  celldm(2)=   0.000000  celldm(3)=   0.000000
     celldm(4)=   0.000000  celldm(5)=   0.000000  celldm(6)=   0.000000

     crystal axes: (cart. coord. in units of alat)
               a(1) = (   1.000000   0.000000   0.000000 )
               a(2) = (   0.000000   0.353553   0.000000 )
               a(3) = (   0.000000   0.000000   0.739504 )

     reciprocal axes: (cart. coord. in units 2 pi/alat)
               b(1) = (  1.000000  0.000000  0.000000 )
               b(2) = (  0.000000  2.828428  0.000000 )
               b(3) = (  0.000000  0.000000  1.352258 )

     PseudoPot. # 1 for Al read from file:
     /home/zczlx99/q-e/pseudo/DFT/Al.pbesol-n-kjpaw_psl.1.0.0.UPF
     MD5 check sum: 3401bcfaaf5f9b08e46a00870a1ef39d
     Pseudo is Projector augmented-wave + core cor, Zval =  3.0
     Generated using "atomic" code by A. Dal Corso v.6.0 svn rev. 13079
     Shape of augmentation charge: PSQ
     Using radial grid of 1135 points,  6 beta functions with:
                l(1) =   0
                l(2) =   0
                l(3) =   1
                l(4) =   1
                l(5) =   2
                l(6) =   2
     Q(r) pseudized with 0 coefficients

     PseudoPot. # 2 for Ni read from file:
     /home/zczlx99/q-e/pseudo/DFT/ni_pbesol_v1.4.uspp.F.UPF
     MD5 check sum: de937c0c8ae4b350e69c02b76d8a83cb
     Pseudo is Ultrasoft + core correction, Zval = 18.0
     Generated by new atomic code, or converted to UPF format
     Using radial grid of  865 points,  6 beta functions with:
                l(1) =   0
                l(2) =   0
                l(3) =   1
                l(4) =   1
                l(5) =   2
                l(6) =   2
     Q(r) pseudized with 10 coefficients,  rinner =    0.980   0.980   0.980
                                                       0.980   0.980

     PseudoPot. # 3 for O  read from file:
     /home/zczlx99/q-e/pseudo/DFT/O.pbesol-n-kjpaw_psl.0.1.UPF
     MD5 check sum: 81d73d1479e654e5638b0319f0d6c2c7
     Pseudo is Projector augmented-wave + core cor, Zval =  6.0
     Generated using "atomic" code by A. Dal Corso v.6.0 svn rev. 13079
     Shape of augmentation charge: BESSEL
     Using radial grid of 1095 points,  4 beta functions with:
                l(1) =   0
                l(2) =   0
                l(3) =   1
                l(4) =   1
     Q(r) pseudized with 0 coefficients

     PseudoPot. # 4 for Zr read from file:
     /home/zczlx99/q-e/pseudo/DFT/zr_pbesol_v1.uspp.F.UPF
     MD5 check sum: f29f2a20533738a515abe666fee35838
     Pseudo is Ultrasoft + core correction, Zval = 12.0
     Generated by new atomic code, or converted to UPF format
     Using radial grid of  887 points,  6 beta functions with:
                l(1) =   0
                l(2) =   0
                l(3) =   1
                l(4) =   1
                l(5) =   2
                l(6) =   2
     Q(r) pseudized with  6 coefficients,  rinner =    1.200   1.200   1.200
                                                       1.200   1.200

     atomic species   valence    mass     pseudopotential
        Al             3.00    26.98154     Al( 1.00)
        Ni            18.00    58.69340     Ni( 1.00)
        O              6.00    15.99940     O ( 1.00)
        Zr            12.00    91.22400     Zr( 1.00)

     Starting magnetic structure
     atomic species   magnetization
        Al           0.100
        Ni           0.278
        O            0.100
        Zr           0.417

     No symmetry found

                                    s                        frac. trans.

      isym =  1     identity

 cryst.   s( 1) = (     1          0          0      )
                  (     0          1          0      )
                  (     0          0          1      )

 cart.    s( 1) = (  1.0000000  0.0000000  0.0000000 )
                  (  0.0000000  1.0000000  0.0000000 )
                  (  0.0000000  0.0000000  1.0000000 )

   Cartesian axes

     site n.     atom                  positions (alat units)
         1           Zr  tau(   1) = (   0.0468750   0.1459866   0.1459866  )
         2           Zr  tau(   2) = (   0.5468750   0.1459866   0.1459866  )
         3           Al  tau(   3) = (   0.2968750   0.3227633   0.3227633  )
         4           Al  tau(   4) = (   0.7968750   0.3227633   0.3227633  )
         5           O   tau(   5) = (   0.1718750   0.1459866   0.3227633  )
         6           O   tau(   6) = (   0.6718750   0.1459866   0.3227633  )
         7           O   tau(   7) = (   0.4218749   0.1459866   0.3227633  )
         8           O   tau(   8) = (   0.1718750   0.3227633   0.1459866  )
         9           O   tau(   9) = (   0.6718750   0.3227633   0.1459866  )
        10           O   tau(  10) = (   0.4218749   0.3227633   0.1459866  )
        11           O   tau(  11) = (   0.9218750   0.3227633   0.1459866  )
        12           Ni  tau(  12) = (   0.0699886   0.1523850   0.5188821  )
        13           Ni  tau(  13) = (   0.4107433   0.1523850   0.5188821  )
        14           Ni  tau(  14) = (   0.7514981   0.1523850   0.5188821  )
        15           Ni  tau(  15) = (   0.2403659   0.3227624   0.5188821  )
        16           Ni  tau(  16) = (   0.5811207   0.3227624   0.5188821  )
        17           Ni  tau(  17) = (   0.9218755   0.3227624   0.5188821  )
        18           Ni  tau(  18) = (   0.2403659   0.1523850   0.6892595  )
        19           Ni  tau(  19) = (   0.5811207   0.1523850   0.6892595  )
        20           Ni  tau(  20) = (   0.9218755   0.1523850   0.6892595  )
        21           Ni  tau(  21) = (   0.0699886   0.3227624   0.6892595  )
        22           Ni  tau(  22) = (   0.4107433   0.3227624   0.6892595  )
        23           Ni  tau(  23) = (   0.7514981   0.3227624   0.6892595  )

   Crystallographic axes

     site n.     atom                  positions (cryst. coord.)
         1           Zr  tau(   1) = (  0.0468750  0.4129124  0.1974114  )
         2           Zr  tau(   2) = (  0.5468750  0.4129124  0.1974114  )
         3           Al  tau(   3) = (  0.2968750  0.9129127  0.4364591  )
         4           Al  tau(   4) = (  0.7968750  0.9129127  0.4364591  )
         5           O   tau(   5) = (  0.1718750  0.4129124  0.4364591  )
         6           O   tau(   6) = (  0.6718750  0.4129124  0.4364591  )
         7           O   tau(   7) = (  0.4218749  0.4129124  0.4364591  )
         8           O   tau(   8) = (  0.1718750  0.9129127  0.1974114  )
         9           O   tau(   9) = (  0.6718750  0.9129127  0.1974114  )
        10           O   tau(  10) = (  0.4218749  0.9129127  0.1974114  )
        11           O   tau(  11) = (  0.9218750  0.9129127  0.1974114  )
        12           Ni  tau(  12) = (  0.0699886  0.4310101  0.7016622  )
        13           Ni  tau(  13) = (  0.4107433  0.4310101  0.7016622  )
        14           Ni  tau(  14) = (  0.7514981  0.4310101  0.7016622  )
        15           Ni  tau(  15) = (  0.2403659  0.9129102  0.7016622  )
        16           Ni  tau(  16) = (  0.5811207  0.9129102  0.7016622  )
        17           Ni  tau(  17) = (  0.9218755  0.9129102  0.7016622  )
        18           Ni  tau(  18) = (  0.2403659  0.4310101  0.9320563  )
        19           Ni  tau(  19) = (  0.5811207  0.4310101  0.9320563  )
        20           Ni  tau(  20) = (  0.9218755  0.4310101  0.9320563  )
        21           Ni  tau(  21) = (  0.0699886  0.9129102  0.9320563  )
        22           Ni  tau(  22) = (  0.4107433  0.9129102  0.9320563  )
        23           Ni  tau(  23) = (  0.7514981  0.9129102  0.9320563  )

     number of k points=     8  Marzari-Vanderbilt smearing, width (Ry)=  0.0147
                       cart. coord. in units 2pi/alat
        k(    1) = (   0.0000000   0.0000000   0.0000000), wk =   0.1250000
        k(    2) = (   0.0000000   0.0000000  -0.6761288), wk =   0.1250000
        k(    3) = (   0.0000000  -1.4142138   0.0000000), wk =   0.1250000
        k(    4) = (   0.0000000  -1.4142138  -0.6761288), wk =   0.1250000
        k(    5) = (  -0.5000000   0.0000000   0.0000000), wk =   0.1250000
        k(    6) = (  -0.5000000   0.0000000  -0.6761288), wk =   0.1250000
        k(    7) = (  -0.5000000  -1.4142138   0.0000000), wk =   0.1250000
        k(    8) = (  -0.5000000  -1.4142138  -0.6761288), wk =   0.1250000

                       cryst. coord.
        k(    1) = (   0.0000000   0.0000000   0.0000000), wk =   0.1250000
        k(    2) = (   0.0000000   0.0000000  -0.5000000), wk =   0.1250000
        k(    3) = (   0.0000000  -0.5000000   0.0000000), wk =   0.1250000
        k(    4) = (   0.0000000  -0.5000000  -0.5000000), wk =   0.1250000
        k(    5) = (  -0.5000000   0.0000000   0.0000000), wk =   0.1250000
        k(    6) = (  -0.5000000   0.0000000  -0.5000000), wk =   0.1250000
        k(    7) = (  -0.5000000  -0.5000000   0.0000000), wk =   0.1250000
        k(    8) = (  -0.5000000  -0.5000000  -0.5000000), wk =   0.1250000

     Check: negative core charge=   -0.000003

     Initial potential from superposition of free atoms

     starting charge  263.99167, renormalised to  288.00000
     Starting wfcs are  218 randomized atomic wfcs
     Checking if some PAW data can be deallocated...

     Self-consistent Calculation

     iteration #  1     ecut=   100.00 Ry     beta= 0.40
     Davidson diagonalization with overlap
     ethr =  1.00E-02,  avg # of iterations =  3.5

     total energy              =   -4586.57818898 Ry
     Harris-Foulkes estimate   =   -4732.52237846 Ry
     estimated scf accuracy    <     271.64475904 Ry

     total magnetization       =    21.26 Bohr mag/cell
     absolute magnetization    =    23.09 Bohr mag/cell

[...]

     Magnetic moment per site:
     atom:    1    charge:    7.2642    magn:   -0.0299    constr:    0.0000
[...]
     0.0327   0.0244   0.0140   0.0067   0.0000   0.0000   0.0000   0.0000
     0.0000   0.0000   0.0000   0.0000   0.0000   0.0000   0.0000   0.0000
     0.0000   0.0000   0.0000   0.0000   0.0000   0.0000   0.0000   0.0000
     0.0000   0.0000   0.0000   0.0000   0.0000

     the Fermi energy is    12.7311 ev

!    total energy              =   -4680.61752119 Ry
     Harris-Foulkes estimate   =   -4680.61752142 Ry
     estimated scf accuracy    <       0.00000046 Ry

     The total energy is the sum of the following terms:

     one-electron contribution =   -4191.24352640 Ry
     hartree contribution      =    2245.60940365 Ry
     xc contribution           =    -514.09416946 Ry
     ewald contribution        =   -2089.77122152 Ry
     one-center paw contrib.   =    -131.11986953 Ry
      -> PAW hartree energy AE =       1.24224805 Ry
      -> PAW hartree energy PS =      -1.23952941 Ry
      -> PAW xc energy AE      =     -35.48169605 Ry
      -> PAW xc energy PS      =       1.82074149 Ry
      -> total E_H with PAW    =    2245.61212230 Ry
      -> total E_XC with PAW   =    -547.75512401 Ry
     smearing contrib. (-TS)   =       0.00186205 Ry

     total magnetization       =     8.55 Bohr mag/cell
     absolute magnetization    =     9.67 Bohr mag/cell

     convergence has been achieved in 124 iterations

     Forces acting on atoms (cartesian axes, Ry/au):

     atom    1 type  4   force =     0.08843549   -0.00253306    0.13581028
     atom    2 type  4   force =    -0.02852011   -0.00682572    0.26588057
     atom    3 type  1   force =     0.05050830   -0.00001117   -0.22094169
     atom    4 type  1   force =    -0.10191992    0.00203318   -0.11329422
     atom    5 type  3   force =    -0.02887699   -0.00023938    0.04416988
     atom    6 type  3   force =     0.11930294   -0.00280009    0.05000256
     atom    7 type  3   force =    -0.04722498    0.00011187    0.05085763
     atom    8 type  3   force =    -0.03134980   -0.00029409   -0.03241780
     atom    9 type  3   force =     0.03342301    0.00135025   -0.02418280
     atom   10 type  3   force =    -0.01142945    0.00161053   -0.03349465
     atom   11 type  3   force =    -0.02409628   -0.00067098    0.07428693
     atom   12 type  2   force =     0.04609656   -0.02189329   -0.05984775
     atom   13 type  2   force =    -0.00566257   -0.01119528   -0.04106042
     atom   14 type  2   force =    -0.00433675   -0.01161836   -0.04159817
     atom   15 type  2   force =    -0.02703453    0.01399887    0.14917355
     atom   16 type  2   force =     0.00017569    0.01314956    0.01470925
     atom   17 type  2   force =    -0.02790498    0.02000582    0.00901510
     atom   18 type  2   force =     0.01049300   -0.01106913   -0.02340137
     atom   19 type  2   force =     0.02630151   -0.00852017   -0.21858794
     atom   20 type  2   force =    -0.06978065   -0.01883800   -0.07288949
     atom   21 type  2   force =     0.05559879    0.02191310    0.01259143
     atom   22 type  2   force =    -0.00427904    0.01069486    0.02172662
     atom   23 type  2   force =    -0.01791925    0.01164066    0.05349250
     The non-local contrib.  to forces
     atom    1 type  4   force =     0.01348078    0.00103913    0.00593876
     atom    2 type  4   force =     0.01624303    0.00319070   -0.12080425
     atom    3 type  1   force =     0.05616936    0.00113249   -0.24569001
     atom    4 type  1   force =    -0.07927959    0.00376987   -0.16447862
     atom    5 type  3   force =    -0.24009380    0.00086943    0.11285170
     atom    6 type  3   force =     0.63308310    0.00251860    0.20242724
     atom    7 type  3   force =    -0.20420376    0.01930462    0.37872734
     atom    8 type  3   force =    -0.50477937   -0.00949809   -0.22972652
     atom    9 type  3   force =    -0.12240574    0.00067476   -0.20733547
     atom   10 type  3   force =     0.24276685    0.00626379   -0.40759897
     atom   11 type  3   force =     0.31379363   -0.01154779    0.33829224
     atom   12 type  2   force =    -0.05419110    0.00134954   -0.12519811
     atom   13 type  2   force =     0.01363432   -0.00392447    0.10608444
     atom   14 type  2   force =     0.00687430   -0.00988246   -0.09548925
     atom   15 type  2   force =     0.09626166    0.02234066   -0.90463932
     atom   16 type  2   force =    -0.00160888    0.01385892   -0.47526123
     atom   17 type  2   force =    -0.05128782    0.01401405   -0.34842491
     atom   18 type  2   force =    -0.04345521   -0.02061149    0.49476326
     atom   19 type  2   force =    -0.16579828   -0.05856629    1.73077496
     atom   20 type  2   force =     0.13988959   -0.02070018    0.85867713
     atom   21 type  2   force =    -0.10736003    0.01187204    0.35651814
     atom   22 type  2   force =    -0.04919097    0.01635886   -0.06764086
     atom   23 type  2   force =     0.16222625    0.01198385    0.04930832
     The ionic contribution  to forces
     atom    1 type  4   force =    -3.44391522   -0.43028252   49.01451698
     atom    2 type  4   force =     0.21418810   -0.61312190   44.65965599
     atom    3 type  1   force =     0.37661515    0.09716448   -9.14239827
     atom    4 type  1   force =     1.32544337    0.13117029   -8.36636281
     atom    5 type  3   force =     0.61184916   -0.22488413  -15.44667628
     atom    6 type  3   force =     3.70415054   -0.25303789  -15.62645876
     atom    7 type  3   force =    -1.25263192   -0.32162683  -17.12030117
     atom    8 type  3   force =     6.18432471    0.24345376   22.50102168
     atom    9 type  3   force =     5.86288197    0.21473340   22.68018334
     atom   10 type  3   force =    -5.11870640    0.17029832   23.35162593
     atom   11 type  3   force =    -7.07911212    0.27987877   25.25814825
     atom   12 type  2   force =     2.05800972   -4.03066803  -81.95095751
     atom   13 type  2   force =     1.39948487   -3.33843148  -65.95554398
     atom   14 type  2   force =     1.44387065   -3.51955602  -73.12052968
     atom   15 type  2   force =     2.13743898    3.61802105  -71.06548562
     atom   16 type  2   force =     1.77389308    3.60806224  -73.92731087
     atom   17 type  2   force =    -9.77422710    4.19499984  -86.22341553
     atom   18 type  2   force =     8.61019275   -3.73892414   60.99979316
     atom   19 type  2   force =     5.00575160   -3.29788676   43.93402458
     atom   20 type  2   force =   -18.46559137   -4.21038596   59.48907709
     atom   21 type  2   force =     7.89217026    4.19502558   54.80412076
     atom   22 type  2   force =    -3.69237773    3.60801666   52.97964310
     atom   23 type  2   force =     0.22629695    3.61798127   58.27362962
     The local contribution  to forces
     atom    1 type  4   force =     3.52209465    0.42683465  -48.88744189
     atom    2 type  4   force =    -0.25720070    0.60334869  -44.27800715
     atom    3 type  1   force =    -0.37510892   -0.09810922    9.13854731
     atom    4 type  1   force =    -1.35406249   -0.13237737    8.40096568
     atom    5 type  3   force =    -0.40375640    0.22377019   15.38052622
     atom    6 type  3   force =    -4.21060807    0.24774221   15.47770155
     atom    7 type  3   force =     1.40776534    0.30264367   16.79762425
     atom    8 type  3   force =    -5.71525914   -0.23435306  -22.30715080
     atom    9 type  3   force =    -5.70693909   -0.21404578  -22.50000347
     atom   10 type  3   force =     4.86600265   -0.17487237  -22.98215315
     atom   11 type  3   force =     6.74312457   -0.26912523  -25.51880947
     atom   12 type  2   force =    -1.96089783    4.00793459   82.01874841
     atom   13 type  2   force =    -1.41717604    3.33165700   65.81301786
     atom   14 type  2   force =    -1.45411574    3.51829403   73.17806581
     atom   15 type  2   force =    -2.25731622   -3.62651459   72.10720136
     atom   16 type  2   force =    -1.77074101   -3.60899572   74.41726196
     atom   17 type  2   force =     9.79470537   -4.18896108   86.57476872
     atom   18 type  2   force =    -8.55788871    3.74831469  -61.51588114
     atom   19 type  2   force =    -4.81444191    3.34729791  -45.86717850
     atom   20 type  2   force =    18.25874575    4.21194184  -60.41275074
     atom   21 type  2   force =    -7.73226653   -4.18503852  -55.14813831
     atom   22 type  2   force =     3.73738386   -3.61382856  -52.89452455
     atom   23 type  2   force =    -0.40506181   -3.61858936  -58.27407535
     The core correction contribution to forces
     atom    1 type  4   force =    -0.00365864   -0.00012204    0.00269584
     atom    2 type  4   force =    -0.00113997   -0.00023810    0.00494715
     atom    3 type  1   force =    -0.00713273   -0.00019698    0.02858379
     atom    4 type  1   force =     0.00596493   -0.00052797    0.01668431
     atom    5 type  3   force =     0.00293930    0.00000772   -0.00256073
     atom    6 type  3   force =    -0.00716530   -0.00001944   -0.00343325
     atom    7 type  3   force =     0.00209723   -0.00020597   -0.00508346
     atom    8 type  3   force =     0.00419329    0.00010394    0.00340522
     atom    9 type  3   force =     0.00009542   -0.00001092    0.00283813
     atom   10 type  3   force =    -0.00130424   -0.00007812    0.00478851
     atom   11 type  3   force =    -0.00209650    0.00012573   -0.00341318
     atom   12 type  2   force =     0.00197701   -0.00051299   -0.00226581
     atom   13 type  2   force =    -0.00044256   -0.00051637   -0.00479622
     atom   14 type  2   force =    -0.00097196   -0.00044397   -0.00326006
     atom   15 type  2   force =    -0.00382303    0.00013918    0.01210095
     atom   16 type  2   force =    -0.00016122    0.00020508    0.00013187
     atom   17 type  2   force =     0.00201562   -0.00006195    0.00636313
     atom   18 type  2   force =     0.00108439    0.00012629   -0.00185743
     atom   19 type  2   force =     0.00213902    0.00064495   -0.01679055
     atom   20 type  2   force =    -0.00365442    0.00033038   -0.00836119
     atom   21 type  2   force =     0.00212426    0.00004435    0.00000543
     atom   22 type  2   force =     0.00075235    0.00012968    0.00412531
     atom   23 type  2   force =    -0.00135040    0.00025004    0.00407571
     The Hubbard contrib.    to forces
     atom    1 type  4   force =     0.00000000    0.00000000    0.00000000
     atom    2 type  4   force =     0.00000000    0.00000000    0.00000000
     atom    3 type  1   force =     0.00000000    0.00000000    0.00000000
     atom    4 type  1   force =     0.00000000    0.00000000    0.00000000
     atom    5 type  3   force =     0.00000000    0.00000000    0.00000000
     atom    6 type  3   force =     0.00000000    0.00000000    0.00000000
     atom    7 type  3   force =     0.00000000    0.00000000    0.00000000
     atom    8 type  3   force =     0.00000000    0.00000000    0.00000000
     atom    9 type  3   force =     0.00000000    0.00000000    0.00000000
     atom   10 type  3   force =     0.00000000    0.00000000    0.00000000
     atom   11 type  3   force =     0.00000000    0.00000000    0.00000000
     atom   12 type  2   force =     0.00000000    0.00000000    0.00000000
     atom   13 type  2   force =     0.00000000    0.00000000    0.00000000
     atom   14 type  2   force =     0.00000000    0.00000000    0.00000000
     atom   15 type  2   force =     0.00000000    0.00000000    0.00000000
     atom   16 type  2   force =     0.00000000    0.00000000    0.00000000
     atom   17 type  2   force =     0.00000000    0.00000000    0.00000000
     atom   18 type  2   force =     0.00000000    0.00000000    0.00000000
     atom   19 type  2   force =     0.00000000    0.00000000    0.00000000
     atom   20 type  2   force =     0.00000000    0.00000000    0.00000000
     atom   21 type  2   force =     0.00000000    0.00000000    0.00000000
     atom   22 type  2   force =     0.00000000    0.00000000    0.00000000
     atom   23 type  2   force =     0.00000000    0.00000000    0.00000000
     The SCF correction term to forces
     atom    1 type  4   force =     0.00043861   -0.00000009    0.00011209
     atom    2 type  4   force =    -0.00060588   -0.00000291    0.00010033
     atom    3 type  1   force =    -0.00002987    0.00000027    0.00002699
     atom    4 type  1   force =     0.00001854    0.00000056   -0.00009129
     atom    5 type  3   force =     0.00018945   -0.00000039    0.00004049
     atom    6 type  3   force =    -0.00015264   -0.00000138   -0.00022272
     atom    7 type  3   force =    -0.00024718   -0.00000141   -0.00009782
     atom    8 type  3   force =     0.00017540    0.00000155    0.00004412
     atom    9 type  3   force =    -0.00020486    0.00000099    0.00014617
     atom   10 type  3   force =    -0.00018362    0.00000111   -0.00014545
     atom   11 type  3   force =     0.00019883   -0.00000026    0.00008060
     atom   12 type  2   force =     0.00120344    0.00000580   -0.00016323
     atom   13 type  2   force =    -0.00115848    0.00002224    0.00018899
     atom   14 type  2   force =     0.00001069   -0.00002774   -0.00037348
     atom   15 type  2   force =     0.00040878    0.00001476    0.00000768
     atom   16 type  2   force =    -0.00120158    0.00002124   -0.00010098
     atom   17 type  2   force =     0.00089365    0.00001716   -0.00026481
     atom   18 type  2   force =     0.00056448    0.00002771   -0.00020772
     atom   19 type  2   force =    -0.00134423   -0.00000778    0.00059307
     atom   20 type  2   force =     0.00083449   -0.00002188    0.00047971
     atom   21 type  2   force =     0.00093553    0.00001187    0.00009691
     atom   22 type  2   force =    -0.00084185    0.00002042    0.00013513
     atom   23 type  2   force =    -0.00002555    0.00001706    0.00056570

     Total force =     0.556876     Total SCF correction =     0.003440

     Computing stress (Cartesian axis) and pressure

          total   stress  (Ry/bohr**3)                   (kbar)     P=      -59.04
  -0.00025188   0.00000587  -0.00011582          -37.05        0.86      -17.04
   0.00000587  -0.00087764  -0.00001641            0.86     -129.11       -2.41
  -0.00011582  -0.00001641  -0.00007450          -17.04       -2.41      -10.96

     kinetic stress (kbar)  39468.89      2.46      5.28
                                2.46  39381.09     -9.12
                                5.28     -9.12  39147.39

     local   stress (kbar)-128489.59      0.66  -1388.52
                                0.66-136561.43   -282.57
                            -1388.52   -282.57 120448.14

     nonloc. stress (kbar)  17513.32      0.28      6.48
                                0.28  17506.50     -0.08
                                6.48     -0.08  17485.52

     hartree stress (kbar)  99887.58     -0.58    537.42
                               -0.58 103063.15    169.56
                              537.42    169.56 -22550.02

     exc-cor stress (kbar)  -9735.62      0.01      0.34
                                0.01  -9732.51     -0.12
                                0.34     -0.12  -9732.43

     corecor stress (kbar)  -3131.49     -0.01     -0.09
                               -0.01  -3131.30      0.10
                               -0.09      0.10  -3132.84

     ewald   stress (kbar) -15550.14     -1.96    822.06
                               -1.96 -10654.61    119.82
                              822.06    119.82-141676.72

     hubbard stress (kbar)      0.00      0.00      0.00
                                0.00      0.00      0.00
                                0.00      0.00      0.00

     london  stress (kbar)      0.00      0.00      0.00
                                0.00      0.00      0.00
                                0.00      0.00      0.00

     DFT-D3  stress (kbar)      0.00      0.00      0.00
                                0.00      0.00      0.00
                                0.00      0.00      0.00

     XDM     stress (kbar)      0.00      0.00      0.00
                                0.00      0.00      0.00
                                0.00      0.00      0.00

     dft-nl  stress (kbar)      0.00      0.00      0.00
                                0.00      0.00      0.00
                                0.00      0.00      0.00

     TS-vdW  stress (kbar)      0.00      0.00      0.00
                                0.00      0.00      0.00
                                0.00      0.00      0.00

     Writing output data file /tmp//Al_Ni(100)_ZrO2(110)+vacuum.save/

     General routines

     Parallel routines

     PAW routines

   This run was terminated on:   9: 1:24  23Aug2022

   JOB DONE.