     Program PWSCF v.6.5 starts on 22Aug2022 at 17:11:10

     R & G space division:  proc/nbgrp/npool/nimage =       8
     Waiting for input...
     Reading input from standard input

     Current dimensions of program PWSCF are:
     Max number of different atomic species (ntypx) = 10
     Max number of k-points (npk) =  40000
     Max angular momentum in pseudopotentials (lmaxx) =  3
               file O.pbesol-n-kjpaw_psl.0.1.UPF: wavefunction(s)  2P renormalized

     bravais-lattice index     =            0
     lattice parameter (alat)  =      19.1327  a.u.
     unit-cell volume          =    1831.1486 (a.u.)^3
     number of atoms/cell      =           24
     number of atomic types    =            3
     number of electrons       =       312.00
     number of Kohn-Sham states=          187
     kinetic-energy cutoff     =     100.0000  Ry
     charge density cutoff     =     800.0000  Ry
     convergence threshold     =      1.0E-06
     mixing beta               =       0.4000
     number of iterations used =            8  plain     mixing
     Exchange-correlation= SLA  PW   PSX  PSC
                           (   1   4  10   8   0   0   0)

     celldm(1)=  19.132690  celldm(2)=   0.000000  celldm(3)=   0.000000
     celldm(4)=   0.000000  celldm(5)=   0.000000  celldm(6)=   0.000000

     crystal axes: (cart. coord. in units of alat)
               a(1) = (   1.000000   0.000000   0.000000 )
               a(2) = (   0.000000   0.353553   0.000000 )
               a(3) = (   0.000000   0.000000   0.739504 )

     reciprocal axes: (cart. coord. in units 2 pi/alat)
               b(1) = (  1.000000  0.000000  0.000000 )
               b(2) = (  0.000000  2.828428  0.000000 )
               b(3) = (  0.000000  0.000000  1.352258 )

     PseudoPot. # 1 for Ni read from file:
     /home/zczlx99/q-e/pseudo/DFT/ni_pbesol_v1.4.uspp.F.UPF
     MD5 check sum: de937c0c8ae4b350e69c02b76d8a83cb
     Pseudo is Ultrasoft + core correction, Zval = 18.0
     Generated by new atomic code, or converted to UPF format
     Using radial grid of  865 points,  6 beta functions with:
                l(1) =   0
                l(2) =   0
                l(3) =   1
                l(4) =   1
                l(5) =   2
                l(6) =   2
     Q(r) pseudized with 10 coefficients,  rinner =    0.980   0.980   0.980
                                                       0.980   0.980

     PseudoPot. # 2 for O  read from file:
     /home/zczlx99/q-e/pseudo/DFT/O.pbesol-n-kjpaw_psl.0.1.UPF
     MD5 check sum: 81d73d1479e654e5638b0319f0d6c2c7
     Pseudo is Projector augmented-wave + core cor, Zval =  6.0
     Generated using "atomic" code by A. Dal Corso v.6.0 svn rev. 13079
     Shape of augmentation charge: BESSEL
     Using radial grid of 1095 points,  4 beta functions with:
                l(1) =   0
                l(2) =   0
                l(3) =   1
                l(4) =   1
     Q(r) pseudized with 0 coefficients

     PseudoPot. # 3 for Zr read from file:
     /home/zczlx99/q-e/pseudo/DFT/zr_pbesol_v1.uspp.F.UPF
     MD5 check sum: f29f2a20533738a515abe666fee35838
     Pseudo is Ultrasoft + core correction, Zval = 12.0
     Generated by new atomic code, or converted to UPF format
     Using radial grid of  887 points,  6 beta functions with:
                l(1) =   0
                l(2) =   0
                l(3) =   1
                l(4) =   1
                l(5) =   2
                l(6) =   2
     Q(r) pseudized with  6 coefficients,  rinner =    1.200   1.200   1.200
                                                       1.200   1.200

     atomic species   valence    mass     pseudopotential
        Ni            18.00    58.69340     Ni( 1.00)
        O              6.00    15.99940     O ( 1.00)
        Zr            12.00    91.22400     Zr( 1.00)

     Starting magnetic structure
     atomic species   magnetization
        Ni           0.278
        O            0.100
        Zr           0.417

     No symmetry found

                                    s                        frac. trans.

      isym =  1     identity

 cryst.   s( 1) = (     1          0          0      )
                  (     0          1          0      )
                  (     0          0          1      )

 cart.    s( 1) = (  1.0000000  0.0000000  0.0000000 )
                  (  0.0000000  1.0000000  0.0000000 )
                  (  0.0000000  0.0000000  1.0000000 )

   Cartesian axes

     site n.     atom                  positions (alat units)
         1           Zr  tau(   1) = (   0.0468750   0.1459866   0.1459866  )
         2           Zr  tau(   2) = (   0.5468750   0.1459866   0.1459866  )
         3           Zr  tau(   3) = (   0.2968750   0.3227633   0.3227633  )
         4           Zr  tau(   4) = (   0.7968750   0.3227633   0.3227633  )
         5           O   tau(   5) = (   0.1718750   0.1459866   0.3227633  )
         6           O   tau(   6) = (   0.6718750   0.1459866   0.3227633  )
         7           O   tau(   7) = (   0.4218749   0.1459866   0.3227633  )
         8           O   tau(   8) = (   0.9218750   0.1459866   0.3227633  )
         9           O   tau(   9) = (   0.1718750   0.3227633   0.1459866  )
        10           O   tau(  10) = (   0.6718750   0.3227633   0.1459866  )
        11           O   tau(  11) = (   0.4218749   0.3227633   0.1459866  )
        12           O   tau(  12) = (   0.9218750   0.3227633   0.1459866  )
        13           Ni  tau(  13) = (   0.0699886   0.1523850   0.5188821  )
        14           Ni  tau(  14) = (   0.4107433   0.1523850   0.5188821  )
        15           Ni  tau(  15) = (   0.7514981   0.1523850   0.5188821  )
        16           Ni  tau(  16) = (   0.2403659   0.3227624   0.5188821  )
        17           Ni  tau(  17) = (   0.5811207   0.3227624   0.5188821  )
        18           Ni  tau(  18) = (   0.9218755   0.3227624   0.5188821  )
        19           Ni  tau(  19) = (   0.2403659   0.1523850   0.6892595  )
        20           Ni  tau(  20) = (   0.5811207   0.1523850   0.6892595  )
        21           Ni  tau(  21) = (   0.9218755   0.1523850   0.6892595  )
        22           Ni  tau(  22) = (   0.0699886   0.3227624   0.6892595  )
        23           Ni  tau(  23) = (   0.4107433   0.3227624   0.6892595  )
        24           Ni  tau(  24) = (   0.7514981   0.3227624   0.6892595  )

   Crystallographic axes

     site n.     atom                  positions (cryst. coord.)
         1           Zr  tau(   1) = (  0.0468750  0.4129124  0.1974114  )
         2           Zr  tau(   2) = (  0.5468750  0.4129124  0.1974114  )
         3           Zr  tau(   3) = (  0.2968750  0.9129127  0.4364591  )
         4           Zr  tau(   4) = (  0.7968750  0.9129127  0.4364591  )
         5           O   tau(   5) = (  0.1718750  0.4129124  0.4364591  )
         6           O   tau(   6) = (  0.6718750  0.4129124  0.4364591  )
         7           O   tau(   7) = (  0.4218749  0.4129124  0.4364591  )
         8           O   tau(   8) = (  0.9218750  0.4129124  0.4364591  )
         9           O   tau(   9) = (  0.1718750  0.9129127  0.1974114  )
        10           O   tau(  10) = (  0.6718750  0.9129127  0.1974114  )
        11           O   tau(  11) = (  0.4218749  0.9129127  0.1974114  )
        12           O   tau(  12) = (  0.9218750  0.9129127  0.1974114  )
        13           Ni  tau(  13) = (  0.0699886  0.4310101  0.7016622  )
        14           Ni  tau(  14) = (  0.4107433  0.4310101  0.7016622  )
        15           Ni  tau(  15) = (  0.7514981  0.4310101  0.7016622  )
        16           Ni  tau(  16) = (  0.2403659  0.9129102  0.7016622  )
        17           Ni  tau(  17) = (  0.5811207  0.9129102  0.7016622  )
        18           Ni  tau(  18) = (  0.9218755  0.9129102  0.7016622  )
        19           Ni  tau(  19) = (  0.2403659  0.4310101  0.9320563  )
        20           Ni  tau(  20) = (  0.5811207  0.4310101  0.9320563  )
        21           Ni  tau(  21) = (  0.9218755  0.4310101  0.9320563  )
        22           Ni  tau(  22) = (  0.0699886  0.9129102  0.9320563  )
        23           Ni  tau(  23) = (  0.4107433  0.9129102  0.9320563  )
        24           Ni  tau(  24) = (  0.7514981  0.9129102  0.9320563  )

     number of k points=     8  Marzari-Vanderbilt smearing, width (Ry)=  0.0147
                       cart. coord. in units 2pi/alat
        k(    1) = (   0.0000000   0.0000000   0.0000000), wk =   0.1250000
        k(    2) = (   0.0000000   0.0000000  -0.6761288), wk =   0.1250000
        k(    3) = (   0.0000000  -1.4142138   0.0000000), wk =   0.1250000
        k(    4) = (   0.0000000  -1.4142138  -0.6761288), wk =   0.1250000
        k(    5) = (  -0.5000000   0.0000000   0.0000000), wk =   0.1250000
        k(    6) = (  -0.5000000   0.0000000  -0.6761288), wk =   0.1250000
        k(    7) = (  -0.5000000  -1.4142138   0.0000000), wk =   0.1250000
        k(    8) = (  -0.5000000  -1.4142138  -0.6761288), wk =   0.1250000

                       cryst. coord.
        k(    1) = (   0.0000000   0.0000000   0.0000000), wk =   0.1250000
        k(    2) = (   0.0000000   0.0000000  -0.5000000), wk =   0.1250000
        k(    3) = (   0.0000000  -0.5000000   0.0000000), wk =   0.1250000
        k(    4) = (   0.0000000  -0.5000000  -0.5000000), wk =   0.1250000
        k(    5) = (  -0.5000000   0.0000000   0.0000000), wk =   0.1250000
        k(    6) = (  -0.5000000   0.0000000  -0.5000000), wk =   0.1250000
        k(    7) = (  -0.5000000  -0.5000000   0.0000000), wk =   0.1250000
        k(    8) = (  -0.5000000  -0.5000000  -0.5000000), wk =   0.1250000

     Check: negative core charge=   -0.000003

     Initial potential from superposition of free atoms

     starting charge  287.99210, renormalised to  312.00000
     Starting wfcs are  240 randomized atomic wfcs
     Checking if some PAW data can be deallocated...

     Self-consistent Calculation

     iteration #  1     ecut=   100.00 Ry     beta= 0.40
     Davidson diagonalization with overlap
     ethr =  1.00E-02,  avg # of iterations =  3.0

     total energy              =   -4771.63057334 Ry
     Harris-Foulkes estimate   =   -4889.06803395 Ry
     estimated scf accuracy    <     223.49250791 Ry

     total magnetization       =    26.93 Bohr mag/cell
     absolute magnetization    =    28.61 Bohr mag/cell

[...]

     Magnetic moment per site:
     atom:    1    charge:    7.2646    magn:   -0.0233    constr:    0.0000
     atom:    2    charge:    7.3090    magn:   -0.0170    constr:    0.0000
     atom:    3    charge:    7.2971    magn:   -0.0176    constr:    0.0000
     atom:    4    charge:    7.2611    magn:   -0.0230    constr:    0.0000
     atom:    5    charge:    5.4528    magn:    0.0385    constr:    0.0000
     atom:    6    charge:    5.4491    magn:    0.0440    constr:    0.0000
     atom:    7    charge:    5.4799    magn:    0.0499    constr:    0.0000
     atom:    8    charge:    5.4358    magn:    0.0351    constr:    0.0000
     atom:    9    charge:    5.4402    magn:    0.0485    constr:    0.0000
[...]

     one-electron contribution =   -3678.83313725 Ry
     hartree contribution      =    2021.37321769 Ry
     xc contribution           =    -552.61321834 Ry
     ewald contribution        =   -2560.53629313 Ry
     one-center paw contrib.   =     -72.87463690 Ry
      -> PAW hartree energy AE =       0.00000000 Ry
      -> PAW hartree energy PS =       0.00000000 Ry
      -> PAW xc energy AE      =       0.00000000 Ry
      -> PAW xc energy PS      =       0.00000000 Ry
      -> total E_H with PAW    =    2021.37321769 Ry
      -> total E_XC with PAW   =    -552.61321834 Ry
     smearing contrib. (-TS)   =       0.00228624 Ry

     total magnetization       =     8.41 Bohr mag/cell
     absolute magnetization    =     9.46 Bohr mag/cell

     convergence has been achieved in 117 iterations

     Forces acting on atoms (cartesian axes, Ry/au):

     atom    1 type  3   force =     0.02286693   -0.00285594    0.20835765
     atom    2 type  3   force =    -0.01826673   -0.00647811    0.24626186
     atom    3 type  3   force =     0.02561551    0.00252750   -0.23022715
     atom    4 type  3   force =    -0.02176810    0.00447945   -0.18967192
     atom    5 type  2   force =    -0.01426633    0.00015593    0.03129307
     atom    6 type  2   force =     0.03034596   -0.00148057    0.05494879
     atom    7 type  2   force =    -0.01001059    0.00024113    0.04597120
     atom    8 type  2   force =     0.00415029   -0.00178286    0.02102400
     atom    9 type  2   force =    -0.02791662   -0.00029891   -0.04828588
     atom   10 type  2   force =     0.01444258    0.00126831   -0.03455926
     atom   11 type  2   force =     0.00309613    0.00163149   -0.04469022
     atom   12 type  2   force =    -0.00057564   -0.00100885   -0.02012210
     atom   13 type  1   force =     0.04404647   -0.02457071   -0.06873827
     atom   14 type  1   force =     0.01320166   -0.01486060   -0.01060301
     atom   15 type  1   force =    -0.02958366   -0.01502370   -0.00247680
     atom   16 type  1   force =    -0.03389897    0.01552657    0.18505480
     atom   17 type  1   force =    -0.00233948    0.01338072    0.02949137
     atom   18 type  1   force =    -0.00638419    0.02150884    0.07556033
     atom   19 type  1   force =     0.01463803   -0.01087145   -0.03342150
     atom   20 type  1   force =     0.02472049   -0.00989789   -0.21283105
     atom   21 type  1   force =    -0.07078202   -0.01824411   -0.07840130
     atom   22 type  1   force =     0.05673625    0.02163730    0.01390029
     atom   23 type  1   force =    -0.00496122    0.01149808    0.01820981
     atom   24 type  1   force =    -0.01310673    0.01351837    0.04395529
     The non-local contrib.  to forces
     atom    1 type  3   force =    -0.00605474    0.00082995    0.00160487
     atom    2 type  3   force =     0.02159549    0.00380112   -0.13153140
     atom    3 type  3   force =    -0.02569757    0.00002850    0.09843155
     atom    4 type  3   force =     0.00787753   -0.00036593    0.00660780
     atom    5 type  2   force =     0.11535558    0.00874234    0.02667914
     atom    6 type  2   force =     0.41868413    0.00351632    0.22836145
     atom    7 type  2   force =    -0.27836002    0.01704828    0.32563364
     atom    8 type  2   force =    -0.20711508   -0.00256717   -0.07400501
     atom    9 type  2   force =    -0.40826842   -0.01102187   -0.13914773
     atom   10 type  2   force =    -0.10141484    0.00284207   -0.08824495
     atom   11 type  2   force =     0.21983372    0.00679625   -0.29587448
     atom   12 type  2   force =     0.26616797   -0.01587914    0.07383643
     atom   13 type  1   force =    -0.08506507    0.00456790   -0.12309863
     atom   14 type  1   force =    -0.00052712   -0.00435082   -0.03023549
     atom   15 type  1   force =     0.10741994   -0.00537912   -0.31905747
     atom   16 type  1   force =     0.21434629    0.02633075   -1.57950419
     atom   17 type  1   force =     0.01137450    0.01590588   -0.51288196
     atom   18 type  1   force =    -0.17209002    0.01186045   -0.84067931
     atom   19 type  1   force =    -0.04455288   -0.02140728    0.53729480
     atom   20 type  1   force =    -0.15612358   -0.05681061    1.76840228
     atom   21 type  1   force =     0.13625688   -0.02362098    0.82921823
     atom   22 type  1   force =    -0.06503521    0.01655314    0.38060194
     atom   23 type  1   force =    -0.05159151    0.01527913   -0.00589708
     atom   24 type  1   force =     0.09970047    0.01124701    0.08469867
     The ionic contribution  to forces
     atom    1 type  3   force =     2.65586979   -0.43028161   35.39034921
     atom    2 type  3   force =    -2.18646827   -0.61312099   37.23269917
     atom    3 type  3   force =     4.54013691    0.38865785  -36.56959307
     atom    4 type  3   force =    -4.52351047    0.52467253  -33.46545122
     atom    5 type  2   force =    -0.54756199   -0.22487759  -15.44667628
     atom    6 type  2   force =    -5.32384808   -0.25303136  -15.62645876
     atom    7 type  2   force =     3.84107382   -0.32162030  -17.12030117
     atom    8 type  2   force =     1.87994320   -0.20425049  -15.49101872
     atom    9 type  2   force =     5.63507019    0.24345361   15.43347717
     atom   10 type  2   force =     0.86344688    0.21473325   15.61263807
     atom   11 type  2   force =    -2.34436123    0.17029832   17.10498586
     atom   12 type  2   force =    -4.30476651    0.27987702   15.47930692
     atom   13 type  1   force =     8.78626738   -4.00426452  -64.47143169
     atom   14 type  1   force =     6.14964658   -3.54942887  -51.89978218
     atom   15 type  1   force =    -8.99780122   -3.77854757  -50.47576286
     atom   16 type  1   force =     1.93791692    3.61797024  -46.93797319
     atom   17 type  1   force =    -4.69144085    3.60805124  -61.54005913
     atom   18 type  1   force =    -3.38398497    4.19500137  -59.91493473
     atom   19 type  1   force =    11.31319794   -3.76260652   61.34901762
     atom   20 type  1   force =     1.38374979   -3.30974652   44.20382227
     atom   21 type  1   force =   -17.30323560   -4.21195661   59.96251168
     atom   22 type  1   force =    11.22831882    4.19502507   55.17013130
     atom   23 type  1   force =    -2.20493196    3.60801378   53.29521195
     atom   24 type  1   force =    -4.40272707    3.61797869   58.72529179
     The local contribution  to forces
     atom    1 type  3   force =    -2.62800706    0.42669998  -35.18251802
     atom    2 type  3   force =     2.14811384    0.60311392  -36.86109420
     atom    3 type  3   force =    -4.49071766   -0.38625214   36.24599471
     atom    4 type  3   force =     4.49502829   -0.51997907   33.26847917
     atom    5 type  2   force =     0.41849609    0.21638168   15.45285592
     atom    6 type  2   force =     4.93897297    0.24806416   15.45681275
     atom    7 type  2   force =    -3.57481018    0.30499318   16.84541257
     atom    8 type  2   force =    -1.67001647    0.20499493   15.58639775
     atom    9 type  2   force =    -5.25819093   -0.23285264  -15.34530073
     atom   10 type  2   force =    -0.74790538   -0.21626984  -15.56100286
     atom   11 type  2   force =     2.12918426   -0.17537991  -16.85788090
     atom   12 type  2   force =     4.03992946   -0.26518771  -15.57357829
     atom   13 type  1   force =    -8.65808006    3.97581397   64.52940523
     atom   14 type  1   force =    -6.13588867    3.53941698   51.92252470
     atom   15 type  1   force =     8.86267601    3.76949333   50.79259775
     atom   16 type  1   force =    -2.18198823   -3.62876039   48.68585099
     atom   17 type  1   force =     4.67742421   -3.61076043   62.08086985
     atom   18 type  1   force =     3.54648343   -4.18548244   60.82292701
     atom   19 type  1   force =   -11.25423583    3.77296133  -61.91788305
     atom   20 type  1   force =    -1.20547885    3.35603094  -46.16708574
     atom   21 type  1   force =    17.09933011    4.21696775  -60.86222083
     atom   22 type  1   force =   -11.10815280   -4.18988863  -55.53653382
     atom   23 type  1   force =     2.25107828   -3.61196213  -53.27557247
     atom   24 type  1   force =     4.29038064   -3.61595511  -58.77022763
     The core correction contribution to forces
     atom    1 type  3   force =     0.00096958   -0.00011064   -0.00081620
     atom    2 type  3   force =    -0.00160621   -0.00027544    0.00617396
     atom    3 type  3   force =     0.00213396    0.00008765   -0.00456984
     atom    4 type  3   force =    -0.00119558    0.00015259    0.00061077
     atom    5 type  2   force =    -0.00037268   -0.00009464   -0.00143623
     atom    6 type  2   force =    -0.00360214   -0.00003423   -0.00384858
     atom    7 type  2   force =     0.00203724   -0.00017859   -0.00448848
     atom    8 type  2   force =     0.00134047    0.00003525   -0.00035805
     atom    9 type  2   force =     0.00352817    0.00012381    0.00289340
     atom   10 type  2   force =     0.00023891   -0.00003951    0.00201465
     atom   11 type  2   force =    -0.00146212   -0.00008472    0.00408123
     atom   12 type  2   force =    -0.00198441    0.00017941    0.00036861
     atom   13 type  1   force =     0.00115730   -0.00067046   -0.00401651
     atom   14 type  1   force =    -0.00015879   -0.00048846   -0.00325522
     atom   15 type  1   force =    -0.00199128   -0.00058582   -0.00015960
     atom   16 type  1   force =    -0.00326266   -0.00000133    0.01621023
     atom   17 type  1   force =    -0.00061936    0.00017613    0.00172948
     atom   18 type  1   force =     0.00321376    0.00014824    0.00820854
     atom   19 type  1   force =     0.00105393    0.00020018   -0.00237147
     atom   20 type  1   force =     0.00203210    0.00063220   -0.01790037
     atom   21 type  1   force =    -0.00344875    0.00038005   -0.00774954
     atom   22 type  1   force =     0.00139746   -0.00002069   -0.00044286
     atom   23 type  1   force =     0.00091122    0.00016831    0.00394711
     atom   24 type  1   force =    -0.00068953    0.00026109    0.00450727
     The Hubbard contrib.    to forces
     atom    1 type  3   force =     0.00000000    0.00000000    0.00000000
     atom    2 type  3   force =     0.00000000    0.00000000    0.00000000
     atom    3 type  3   force =     0.00000000    0.00000000    0.00000000
     atom    4 type  3   force =     0.00000000    0.00000000    0.00000000
     atom    5 type  2   force =     0.00000000    0.00000000    0.00000000
     atom    6 type  2   force =     0.00000000    0.00000000    0.00000000
     atom    7 type  2   force =     0.00000000    0.00000000    0.00000000
     atom    8 type  2   force =     0.00000000    0.00000000    0.00000000
     atom    9 type  2   force =     0.00000000    0.00000000    0.00000000
     atom   10 type  2   force =     0.00000000    0.00000000    0.00000000
     atom   11 type  2   force =     0.00000000    0.00000000    0.00000000
     atom   12 type  2   force =     0.00000000    0.00000000    0.00000000
     atom   13 type  1   force =     0.00000000    0.00000000    0.00000000
     atom   14 type  1   force =     0.00000000    0.00000000    0.00000000
     atom   15 type  1   force =     0.00000000    0.00000000    0.00000000
     atom   16 type  1   force =     0.00000000    0.00000000    0.00000000
     atom   17 type  1   force =     0.00000000    0.00000000    0.00000000
     atom   18 type  1   force =     0.00000000    0.00000000    0.00000000
     atom   19 type  1   force =     0.00000000    0.00000000    0.00000000
     atom   20 type  1   force =     0.00000000    0.00000000    0.00000000
     atom   21 type  1   force =     0.00000000    0.00000000    0.00000000
     atom   22 type  1   force =     0.00000000    0.00000000    0.00000000
     atom   23 type  1   force =     0.00000000    0.00000000    0.00000000
     atom   24 type  1   force =     0.00000000    0.00000000    0.00000000
     The SCF correction term to forces
     atom    1 type  3   force =     0.00009059    0.00000354   -0.00023001
     atom    2 type  3   force =     0.00009964    0.00000045    0.00004652
     atom    3 type  3   force =    -0.00023889    0.00000282   -0.00045832
     atom    4 type  3   force =     0.00003338   -0.00000349    0.00011375
     atom    5 type  2   force =    -0.00018209    0.00000132   -0.00009729
     atom    6 type  2   force =     0.00014031    0.00000171    0.00011412
     atom    7 type  2   force =     0.00004979   -0.00000427   -0.00025318
     atom    8 type  2   force =    -0.00000060    0.00000179    0.00004021
     atom    9 type  2   force =    -0.00005440   -0.00000464   -0.00017580
     atom   10 type  2   force =     0.00007824   -0.00000048    0.00006801
     atom   11 type  2   force =    -0.00009727   -0.00000127    0.00003025
     atom   12 type  2   force =     0.00007908   -0.00000126   -0.00002359
     atom   13 type  1   force =    -0.00023184   -0.00002043    0.00043552
     atom   14 type  1   force =     0.00013090   -0.00001227    0.00017736
     atom   15 type  1   force =     0.00011412   -0.00000734   -0.00006244
     atom   16 type  1   force =    -0.00091006   -0.00001552    0.00050315
     atom   17 type  1   force =     0.00092325    0.00000507   -0.00013470
     atom   18 type  1   force =    -0.00000515   -0.00002161    0.00007101
     atom   19 type  1   force =    -0.00082390   -0.00002198    0.00055279
     atom   20 type  1   force =     0.00054227   -0.00000673   -0.00003731
     atom   21 type  1   force =     0.00031658   -0.00001715   -0.00012865
     atom   22 type  1   force =     0.00020923   -0.00003441    0.00017591
     atom   23 type  1   force =    -0.00042602   -0.00000383    0.00055250
     atom   24 type  1   force =     0.00022999   -0.00001613   -0.00028263

     Total force =     0.572031     Total SCF correction =     0.002218

     Computing stress (Cartesian axis) and pressure

          total   stress  (Ry/bohr**3)                   (kbar)     P=       28.22
   0.00035965   0.00000171  -0.00003989           52.91        0.25       -5.87
   0.00000171  -0.00034295  -0.00002113            0.25      -50.45       -3.11
  -0.00003989  -0.00002113   0.00055882           -5.87       -3.11       82.21

     kinetic stress (kbar)  43280.05     -0.41     -4.94
                               -0.41  43195.88     -9.33
                               -4.94     -9.33  42975.28

     local   stress (kbar) -88099.45      7.94   -140.17
                                7.94 -96212.75    -73.49
                             -140.17    -73.49  80035.65

     nonloc. stress (kbar)  19874.92     -1.33      7.69
                               -1.33  19859.08      3.61
                                7.69      3.61  19795.71

     hartree stress (kbar)  81250.11     -3.58    108.68
                               -3.58  84266.65     90.17
                              108.68     90.17  -3130.04

     exc-cor stress (kbar)  -9751.09      0.01     -0.39
                                0.01  -9747.11     -0.18
                               -0.39     -0.18  -9746.00

     corecor stress (kbar)  -4021.40      0.01     -0.04
                                0.01  -4020.92     -0.00
                               -0.04     -0.00  -4019.59

     ewald   stress (kbar) -42480.23     -2.39     23.30
                               -2.39 -37391.27    -13.88
                               23.30    -13.88-125828.80

     hubbard stress (kbar)      0.00      0.00      0.00
                                0.00      0.00      0.00
                                0.00      0.00      0.00

     london  stress (kbar)      0.00      0.00      0.00
                                0.00      0.00      0.00
                                0.00      0.00      0.00

     DFT-D3  stress (kbar)      0.00      0.00      0.00
                                0.00      0.00      0.00
                                0.00      0.00      0.00

     XDM     stress (kbar)      0.00      0.00      0.00
                                0.00      0.00      0.00
                                0.00      0.00      0.00

     dft-nl  stress (kbar)      0.00      0.00      0.00
                                0.00      0.00      0.00
                                0.00      0.00      0.00

     TS-vdW  stress (kbar)      0.00      0.00      0.00
                                0.00      0.00      0.00
                                0.00      0.00      0.00

     Writing output data file /tmp//Ni(100)_ZrO2(110).save/

     General routines

     Parallel routines

     PAW routines

   This run was terminated on:   8:23:49  23Aug2022

   JOB DONE.