     Program PWSCF v.6.5 starts on 22Aug2022 at 17: 9:21

     R & G space division:  proc/nbgrp/npool/nimage =       8
     Waiting for input...
     Reading input from standard input

     Current dimensions of program PWSCF are:
     Max number of different atomic species (ntypx) = 10
     Max number of k-points (npk) =  40000
     Max angular momentum in pseudopotentials (lmaxx) =  3
               file O.pbesol-n-kjpaw_psl.0.1.UPF: wavefunction(s)  2P renormalized

     bravais-lattice index     =            0
     lattice parameter (alat)  =      19.1327  a.u.
     unit-cell volume          =    1831.1486 (a.u.)^3
     number of atoms/cell      =           23
     number of atomic types    =            4
     number of electrons       =       310.00
     number of Kohn-Sham states=          186
     kinetic-energy cutoff     =     100.0000  Ry
     charge density cutoff     =     800.0000  Ry
     convergence threshold     =      1.0E-06
     mixing beta               =       0.4000
     number of iterations used =            8  plain     mixing
     Exchange-correlation= SLA  PW   PSX  PSC
                           (   1   4  10   8   0   0   0)

     celldm(1)=  19.132690  celldm(2)=   0.000000  celldm(3)=   0.000000
     celldm(4)=   0.000000  celldm(5)=   0.000000  celldm(6)=   0.000000

     crystal axes: (cart. coord. in units of alat)
               a(1) = (   1.000000   0.000000   0.000000 )
               a(2) = (   0.000000   0.353553   0.000000 )
               a(3) = (   0.000000   0.000000   0.739504 )

     reciprocal axes: (cart. coord. in units 2 pi/alat)
               b(1) = (  1.000000  0.000000  0.000000 )
               b(2) = (  0.000000  2.828428  0.000000 )
               b(3) = (  0.000000  0.000000  1.352258 )

     PseudoPot. # 1 for Cr read from file:
     /home/zczlx99/q-e/pseudo/DFT/cr_pbesol_v1.5.uspp.F.UPF
     MD5 check sum: a621641e0be27168676a837af8893d0f
     Pseudo is Ultrasoft + core correction, Zval = 14.0
     Generated by new atomic code, or converted to UPF format
     Using radial grid of  857 points,  6 beta functions with:
                l(1) =   0
                l(2) =   0
                l(3) =   1
                l(4) =   1
                l(5) =   2
                l(6) =   2
     Q(r) pseudized with  8 coefficients,  rinner =    0.950   0.950   0.950
                                                       0.950   0.950

     PseudoPot. # 2 for Ni read from file:
     /home/zczlx99/q-e/pseudo/DFT/ni_pbesol_v1.4.uspp.F.UPF
     MD5 check sum: de937c0c8ae4b350e69c02b76d8a83cb
     Pseudo is Ultrasoft + core correction, Zval = 18.0
     Generated by new atomic code, or converted to UPF format
     Using radial grid of  865 points,  6 beta functions with:
                l(1) =   0
                l(2) =   0
                l(3) =   1
                l(4) =   1
                l(5) =   2
                l(6) =   2
     Q(r) pseudized with 10 coefficients,  rinner =    0.980   0.980   0.980
                                                       0.980   0.980

     PseudoPot. # 3 for O  read from file:
     /home/zczlx99/q-e/pseudo/DFT/O.pbesol-n-kjpaw_psl.0.1.UPF
     MD5 check sum: 81d73d1479e654e5638b0319f0d6c2c7
     Pseudo is Projector augmented-wave + core cor, Zval =  6.0
     Generated using "atomic" code by A. Dal Corso v.6.0 svn rev. 13079
     Shape of augmentation charge: BESSEL
     Using radial grid of 1095 points,  4 beta functions with:
                l(1) =   0
                l(2) =   0
                l(3) =   1
                l(4) =   1
     Q(r) pseudized with 0 coefficients

     PseudoPot. # 4 for Zr read from file:
     /home/zczlx99/q-e/pseudo/DFT/zr_pbesol_v1.uspp.F.UPF
     MD5 check sum: f29f2a20533738a515abe666fee35838
     Pseudo is Ultrasoft + core correction, Zval = 12.0
     Generated by new atomic code, or converted to UPF format
     Using radial grid of  887 points,  6 beta functions with:
                l(1) =   0
                l(2) =   0
                l(3) =   1
                l(4) =   1
                l(5) =   2
                l(6) =   2
     Q(r) pseudized with  6 coefficients,  rinner =    1.200   1.200   1.200
                                                       1.200   1.200

     atomic species   valence    mass     pseudopotential
        Cr            14.00    51.99610     Cr( 1.00)
        Ni            18.00    58.69340     Ni( 1.00)
        O              6.00    15.99940     O ( 1.00)
        Zr            12.00    91.22400     Zr( 1.00)

     Starting magnetic structure
     atomic species   magnetization
        Cr           0.357
        Ni           0.278
        O            0.100
        Zr           0.417

     No symmetry found

                                    s                        frac. trans.

      isym =  1     identity

 cryst.   s( 1) = (     1          0          0      )
                  (     0          1          0      )
                  (     0          0          1      )

 cart.    s( 1) = (  1.0000000  0.0000000  0.0000000 )
                  (  0.0000000  1.0000000  0.0000000 )
                  (  0.0000000  0.0000000  1.0000000 )

   Cartesian axes

     site n.     atom                  positions (alat units)
         1           Zr  tau(   1) = (   0.0468750   0.1459866   0.1459866  )
         2           Zr  tau(   2) = (   0.5468750   0.1459866   0.1459866  )
         3           Cr  tau(   3) = (   0.2968750   0.3227633   0.3227633  )
         4           Cr  tau(   4) = (   0.7968750   0.3227633   0.3227633  )
         5           O   tau(   5) = (   0.1718750   0.1459866   0.3227633  )
         6           O   tau(   6) = (   0.6718750   0.1459866   0.3227633  )
         7           O   tau(   7) = (   0.4218749   0.1459866   0.3227633  )
         8           O   tau(   8) = (   0.1718750   0.3227633   0.1459866  )
         9           O   tau(   9) = (   0.6718750   0.3227633   0.1459866  )
        10           O   tau(  10) = (   0.4218749   0.3227633   0.1459866  )
        11           O   tau(  11) = (   0.9218750   0.3227633   0.1459866  )
        12           Ni  tau(  12) = (   0.0699886   0.1523850   0.5188821  )
        13           Ni  tau(  13) = (   0.4107433   0.1523850   0.5188821  )
        14           Ni  tau(  14) = (   0.7514981   0.1523850   0.5188821  )
        15           Ni  tau(  15) = (   0.2403659   0.3227624   0.5188821  )
        16           Ni  tau(  16) = (   0.5811207   0.3227624   0.5188821  )
        17           Ni  tau(  17) = (   0.9218755   0.3227624   0.5188821  )
        18           Ni  tau(  18) = (   0.2403659   0.1523850   0.6892595  )
        19           Ni  tau(  19) = (   0.5811207   0.1523850   0.6892595  )
        20           Ni  tau(  20) = (   0.9218755   0.1523850   0.6892595  )
        21           Ni  tau(  21) = (   0.0699886   0.3227624   0.6892595  )
        22           Ni  tau(  22) = (   0.4107433   0.3227624   0.6892595  )
        23           Ni  tau(  23) = (   0.7514981   0.3227624   0.6892595  )

   Crystallographic axes

     site n.     atom                  positions (cryst. coord.)
         1           Zr  tau(   1) = (  0.0468750  0.4129124  0.1974114  )
         2           Zr  tau(   2) = (  0.5468750  0.4129124  0.1974114  )
         3           Cr  tau(   3) = (  0.2968750  0.9129127  0.4364591  )
         4           Cr  tau(   4) = (  0.7968750  0.9129127  0.4364591  )
         5           O   tau(   5) = (  0.1718750  0.4129124  0.4364591  )
         6           O   tau(   6) = (  0.6718750  0.4129124  0.4364591  )
         7           O   tau(   7) = (  0.4218749  0.4129124  0.4364591  )
         8           O   tau(   8) = (  0.1718750  0.9129127  0.1974114  )
         9           O   tau(   9) = (  0.6718750  0.9129127  0.1974114  )
        10           O   tau(  10) = (  0.4218749  0.9129127  0.1974114  )
        11           O   tau(  11) = (  0.9218750  0.9129127  0.1974114  )
        12           Ni  tau(  12) = (  0.0699886  0.4310101  0.7016622  )
        13           Ni  tau(  13) = (  0.4107433  0.4310101  0.7016622  )
        14           Ni  tau(  14) = (  0.7514981  0.4310101  0.7016622  )
        15           Ni  tau(  15) = (  0.2403659  0.9129102  0.7016622  )
        16           Ni  tau(  16) = (  0.5811207  0.9129102  0.7016622  )
        17           Ni  tau(  17) = (  0.9218755  0.9129102  0.7016622  )
        18           Ni  tau(  18) = (  0.2403659  0.4310101  0.9320563  )
        19           Ni  tau(  19) = (  0.5811207  0.4310101  0.9320563  )
        20           Ni  tau(  20) = (  0.9218755  0.4310101  0.9320563  )
        21           Ni  tau(  21) = (  0.0699886  0.9129102  0.9320563  )
        22           Ni  tau(  22) = (  0.4107433  0.9129102  0.9320563  )
        23           Ni  tau(  23) = (  0.7514981  0.9129102  0.9320563  )

     number of k points=     8  Marzari-Vanderbilt smearing, width (Ry)=  0.0147
                       cart. coord. in units 2pi/alat
        k(    1) = (   0.0000000   0.0000000   0.0000000), wk =   0.1250000
        k(    2) = (   0.0000000   0.0000000  -0.6761288), wk =   0.1250000
        k(    3) = (   0.0000000  -1.4142138   0.0000000), wk =   0.1250000
        k(    4) = (   0.0000000  -1.4142138  -0.6761288), wk =   0.1250000
        k(    5) = (  -0.5000000   0.0000000   0.0000000), wk =   0.1250000
        k(    6) = (  -0.5000000   0.0000000  -0.6761288), wk =   0.1250000
        k(    7) = (  -0.5000000  -1.4142138   0.0000000), wk =   0.1250000
        k(    8) = (  -0.5000000  -1.4142138  -0.6761288), wk =   0.1250000

                       cryst. coord.
        k(    1) = (   0.0000000   0.0000000   0.0000000), wk =   0.1250000
        k(    2) = (   0.0000000   0.0000000  -0.5000000), wk =   0.1250000
        k(    3) = (   0.0000000  -0.5000000   0.0000000), wk =   0.1250000
        k(    4) = (   0.0000000  -0.5000000  -0.5000000), wk =   0.1250000
        k(    5) = (  -0.5000000   0.0000000   0.0000000), wk =   0.1250000
        k(    6) = (  -0.5000000   0.0000000  -0.5000000), wk =   0.1250000
        k(    7) = (  -0.5000000  -0.5000000   0.0000000), wk =   0.1250000
        k(    8) = (  -0.5000000  -0.5000000  -0.5000000), wk =   0.1250000

     Check: negative core charge=   -0.000004

     Initial potential from superposition of free atoms

     starting charge  283.99602, renormalised to  310.00000
     Starting wfcs are  230 randomized atomic wfcs
     Checking if some PAW data can be deallocated...

     Self-consistent Calculation

     iteration #  1     ecut=   100.00 Ry     beta= 0.40
     Davidson diagonalization with overlap
     ethr =  1.00E-02,  avg # of iterations =  3.8

     total energy              =   -4865.88489555 Ry
     Harris-Foulkes estimate   =   -5008.54779538 Ry
     estimated scf accuracy    <     269.09548903 Ry

     total magnetization       =    22.34 Bohr mag/cell
     absolute magnetization    =    24.07 Bohr mag/cell

[...]

     Magnetic moment per site:
     atom:    1    charge:    7.2651    magn:   -0.0123    constr:    0.0000
     atom:    2    charge:    7.3072    magn:   -0.0051    constr:    0.0000
[...]
     0.0000   0.0000   0.0000   0.0000   0.0000   0.0000   0.0000   0.0000
     0.0000   0.0000   0.0000   0.0000   0.0000   0.0000   0.0000   0.0000
     0.0000   0.0000   0.0000   0.0000   0.0000   0.0000   0.0000   0.0000
     0.0000   0.0000

     the Fermi energy is    13.5005 ev

!    total energy              =   -4954.11403955 Ry
     Harris-Foulkes estimate   =   -4954.11404000 Ry
     estimated scf accuracy    <       0.00000094 Ry

     The total energy is the sum of the following terms:

     one-electron contribution =   -3894.50787522 Ry
     hartree contribution      =    2110.16323245 Ry
     xc contribution           =    -553.10960542 Ry
     ewald contribution        =   -2552.85697386 Ry
     one-center paw contrib.   =     -63.80550194 Ry
      -> PAW hartree energy AE =       0.00000000 Ry
      -> PAW hartree energy PS =       0.00000000 Ry
      -> PAW xc energy AE      =       0.00000000 Ry
      -> PAW xc energy PS      =       0.00000000 Ry
      -> total E_H with PAW    =    2110.16323245 Ry
      -> total E_XC with PAW   =    -553.10960542 Ry
     smearing contrib. (-TS)   =       0.00268444 Ry

     total magnetization       =    12.53 Bohr mag/cell
     absolute magnetization    =    13.89 Bohr mag/cell

     convergence has been achieved in 124 iterations

     Forces acting on atoms (cartesian axes, Ry/au):

     atom    1 type  4   force =     0.07169180   -0.00250359    0.13616213
     atom    2 type  4   force =    -0.02322492   -0.00653638    0.24332674
     atom    3 type  1   force =     0.01484345   -0.00012631   -0.15177118
     atom    4 type  1   force =    -0.11617031    0.00180978   -0.10422352
     atom    5 type  3   force =    -0.00907903    0.00066564    0.04098184
     atom    6 type  3   force =     0.13154264   -0.00156014    0.05864495
     atom    7 type  3   force =    -0.05932167    0.00060763    0.05556700
     atom    8 type  3   force =    -0.02191571   -0.00046655   -0.02932004
     atom    9 type  3   force =     0.03079536    0.00109992   -0.02813211
     atom   10 type  3   force =    -0.00681076    0.00147181   -0.03862623
     atom   11 type  3   force =    -0.01507495   -0.00048417    0.06033454
     atom   12 type  2   force =     0.04597801   -0.02354448   -0.06476393
     atom   13 type  2   force =     0.00382934   -0.01399585   -0.03486069
     atom   14 type  2   force =    -0.00761617   -0.01275894   -0.04304547
     atom   15 type  2   force =    -0.01194072    0.01516493    0.08399138
     atom   16 type  2   force =     0.00335164    0.01336304    0.01464809
     atom   17 type  2   force =    -0.03155597    0.02021641    0.01293583
     atom   18 type  2   force =     0.00912883   -0.01137815   -0.01780607
     atom   19 type  2   force =     0.02395549   -0.00944640   -0.21095771
     atom   20 type  2   force =    -0.06931323   -0.01876457   -0.07576361
     atom   21 type  2   force =     0.05863009    0.02221581    0.01914303
     atom   22 type  2   force =    -0.00640866    0.01228981    0.02481652
     atom   23 type  2   force =    -0.01531456    0.01266075    0.04871852
     The non-local contrib.  to forces
     atom    1 type  4   force =     0.00165852    0.00089740    0.00055645
     atom    2 type  4   force =     0.01672903    0.00370366   -0.13162039
     atom    3 type  1   force =    -0.04719239    0.00097799    0.31834818
     atom    4 type  1   force =     0.12495725    0.00258308    0.12791586
     atom    5 type  3   force =    -0.02307194    0.00783545    0.10196374
     atom    6 type  3   force =     0.67367050    0.00295045    0.17909584
     atom    7 type  3   force =    -0.36624660    0.01721505    0.34740256
     atom    8 type  3   force =    -0.46926036   -0.01068226   -0.17712170
     atom    9 type  3   force =    -0.13517880    0.00238584   -0.16355807
     atom   10 type  3   force =     0.23142369    0.00688510   -0.36902120
     atom   11 type  3   force =     0.33462877   -0.01213055    0.32209596
     atom   12 type  2   force =    -0.05125190    0.00255054   -0.12333599
     atom   13 type  2   force =     0.01409364   -0.00603013    0.08197545
     atom   14 type  2   force =    -0.00366052   -0.01497261   -0.06723076
     atom   15 type  2   force =     0.01950048    0.01809059   -0.76901683
     atom   16 type  2   force =    -0.01607617    0.01407966   -0.44384521
     atom   17 type  2   force =     0.00778409    0.01298510   -0.30253725
     atom   18 type  2   force =    -0.04635039   -0.02119816    0.47566914
     atom   19 type  2   force =    -0.16469096   -0.05932318    1.74064184
     atom   20 type  2   force =     0.13915783   -0.02271423    0.83460047
     atom   21 type  2   force =    -0.07269236    0.01361958    0.34304140
     atom   22 type  2   force =    -0.05100298    0.01419017   -0.03347878
     atom   23 type  2   force =     0.12367080    0.01151934    0.05532243
     The ionic contribution  to forces
     atom    1 type  4   force =    -3.44391581   -0.43028141   41.02045265
     atom    2 type  4   force =     0.21419051   -0.61312079   36.66558792
     atom    3 type  1   force =     1.75753422    0.45343425  -42.66452524
     atom    4 type  1   force =     6.18540554    0.61212802  -39.04302642
     atom    5 type  3   force =    -5.61379119   -0.22487614  -15.44667628
     atom    6 type  3   force =    -2.52148688   -0.25302990  -15.62645876
     atom    7 type  3   force =     4.97300788   -0.32161884  -17.12030117
     atom    8 type  3   force =     2.79345786    0.24345376   15.19525565
     atom    9 type  3   force =     2.47201728    0.21473340   15.37441663
     atom   10 type  3   force =    -1.72784052    0.17029832   16.04585461
     atom   11 type  3   force =    -3.68824526    0.27987877   17.95238222
     atom   12 type  2   force =     0.64795831   -4.12511625  -70.20992854
     atom   13 type  2   force =     6.82938455   -3.59730126  -49.76715707
     atom   14 type  2   force =    -1.74336346   -3.93155369  -53.53173306
     atom   15 type  2   force =    -3.95710606    3.61795767  -43.89830089
     atom   16 type  2   force =    -0.93834778    3.60804790  -60.76436506
     atom   17 type  2   force =    -1.96397251    4.19496430  -66.68742000
     atom   18 type  2   force =     7.67268914   -3.77024921   61.36670617
     atom   19 type  2   force =     4.42159369   -3.31419205   44.21214805
     atom   20 type  2   force =   -17.04495391   -4.23457007   59.81448464
     atom   21 type  2   force =     7.46203015    4.19502336   55.09186105
     atom   22 type  2   force =    -2.16860224    3.60801309   53.33865511
     atom   23 type  2   force =    -0.61764352    3.61797676   58.68208780
     The local contribution  to forces
     atom    1 type  4   force =     3.51733669    0.42699930  -40.88849045
     atom    2 type  4   force =    -0.25338904    0.60315508  -36.29743372
     atom    3 type  1   force =    -1.69756112   -0.45456275   42.20616359
     atom    4 type  1   force =    -6.42409269   -0.61291333   38.81744272
     atom    5 type  3   force =     5.62825005    0.21778594   15.38788883
     atom    6 type  3   force =     1.98672057    0.24854083   15.50881832
     atom    7 type  3   force =    -4.67073582    0.30518756   16.83295973
     atom    8 type  3   force =    -2.34951423   -0.23335818  -15.05025808
     atom    9 type  3   force =    -2.30655151   -0.21598965  -15.24170110
     atom   10 type  3   force =     1.49050031   -0.17562723  -15.71974698
     atom   11 type  3   force =     3.34104551   -0.26836717  -18.21123324
     atom   12 type  2   force =    -0.55089536    4.09958653   70.27132132
     atom   13 type  2   force =    -6.83937094    3.58983146   49.65528027
     atom   14 type  2   force =     1.73922097    3.93420262   53.56034153
     atom   15 type  2   force =     3.92807192   -3.62099194   44.74144994
     atom   16 type  2   force =     0.95677059   -3.60896212   61.22338780
     atom   17 type  2   force =     1.92430264   -4.18769710   66.99823668
     atom   18 type  2   force =    -7.61823141    3.77989719  -61.85838758
     atom   19 type  2   force =    -4.23549476    3.36342729  -46.14631575
     atom   20 type  2   force =    16.84039151    4.23812776  -60.71545900
     atom   21 type  2   force =    -7.33101073   -4.18645005  -55.41475720
     atom   22 type  2   force =     2.21243162   -3.61011313  -53.28412294
     atom   23 type  2   force =     0.47832557   -3.61709159  -58.69199898
     The core correction contribution to forces
     atom    1 type  4   force =    -0.00268746   -0.00011805    0.00320083
     atom    2 type  4   force =    -0.00122352   -0.00026707    0.00614061
     atom    3 type  1   force =     0.00218429    0.00002754   -0.01183675
     atom    4 type  1   force =    -0.00290685    0.00001697   -0.00739496
     atom    5 type  3   force =     0.00006335   -0.00008183   -0.00242119
     atom    6 type  3   force =    -0.00793879   -0.00002454   -0.00313444
     atom    7 type  3   force =     0.00434475   -0.00017893   -0.00468408
     atom    8 type  3   force =     0.00371487    0.00011911    0.00266351
     atom    9 type  3   force =     0.00015079   -0.00003299    0.00219340
     atom   10 type  3   force =    -0.00106289   -0.00008593    0.00424103
     atom   11 type  3   force =    -0.00228056    0.00013404   -0.00335397
     atom   12 type  2   force =     0.00207410   -0.00057934   -0.00252048
     atom   13 type  2   force =    -0.00062627   -0.00048288   -0.00495104
     atom   14 type  2   force =    -0.00130959   -0.00045274   -0.00339643
     atom   15 type  2   force =    -0.00169783    0.00011746    0.00962094
     atom   16 type  2   force =    -0.00011698    0.00019677    0.00012877
     atom   17 type  2   force =     0.00099649   -0.00001317    0.00546566
     atom   18 type  2   force =     0.00133863    0.00017994   -0.00174635
     atom   19 type  2   force =     0.00204590    0.00065171   -0.01725107
     atom   20 type  2   force =    -0.00363748    0.00038841   -0.00837078
     atom   21 type  2   force =     0.00155062    0.00001978   -0.00035611
     atom   22 type  2   force =     0.00072320    0.00018455    0.00375298
     atom   23 type  2   force =    -0.00084541    0.00024828    0.00401527
     The Hubbard contrib.    to forces
     atom    1 type  4   force =     0.00000000    0.00000000    0.00000000
     atom    2 type  4   force =     0.00000000    0.00000000    0.00000000
     atom    3 type  1   force =     0.00000000    0.00000000    0.00000000
     atom    4 type  1   force =     0.00000000    0.00000000    0.00000000
     atom    5 type  3   force =     0.00000000    0.00000000    0.00000000
     atom    6 type  3   force =     0.00000000    0.00000000    0.00000000
     atom    7 type  3   force =     0.00000000    0.00000000    0.00000000
     atom    8 type  3   force =     0.00000000    0.00000000    0.00000000
     atom    9 type  3   force =     0.00000000    0.00000000    0.00000000
     atom   10 type  3   force =     0.00000000    0.00000000    0.00000000
     atom   11 type  3   force =     0.00000000    0.00000000    0.00000000
     atom   12 type  2   force =     0.00000000    0.00000000    0.00000000
     atom   13 type  2   force =     0.00000000    0.00000000    0.00000000
     atom   14 type  2   force =     0.00000000    0.00000000    0.00000000
     atom   15 type  2   force =     0.00000000    0.00000000    0.00000000
     atom   16 type  2   force =     0.00000000    0.00000000    0.00000000
     atom   17 type  2   force =     0.00000000    0.00000000    0.00000000
     atom   18 type  2   force =     0.00000000    0.00000000    0.00000000
     atom   19 type  2   force =     0.00000000    0.00000000    0.00000000
     atom   20 type  2   force =     0.00000000    0.00000000    0.00000000
     atom   21 type  2   force =     0.00000000    0.00000000    0.00000000
     atom   22 type  2   force =     0.00000000    0.00000000    0.00000000
     atom   23 type  2   force =     0.00000000    0.00000000    0.00000000
     The SCF correction term to forces
     atom    1 type  4   force =    -0.00070197   -0.00000110    0.00033262
     atom    2 type  4   force =     0.00046627   -0.00000753    0.00054229
     atom    3 type  1   force =    -0.00012339   -0.00000361   -0.00003098
     atom    4 type  1   force =     0.00046461   -0.00000524    0.00072925
     atom    5 type  3   force =    -0.00053113    0.00000195    0.00011672
     atom    6 type  3   force =     0.00057541    0.00000276    0.00021396
     atom    7 type  3   force =     0.00030630    0.00000252    0.00007993
     atom    8 type  3   force =    -0.00031568    0.00000075    0.00003055
     atom    9 type  3   force =     0.00035578    0.00000304    0.00040701
     atom   10 type  3   force =     0.00016682    0.00000128   -0.00006371
     atom   11 type  3   force =    -0.00022525    0.00000046    0.00033355
     atom   12 type  2   force =    -0.00190897    0.00001376   -0.00041026
     atom   13 type  2   force =     0.00034653   -0.00001330   -0.00011833
     atom   14 type  2   force =     0.00149459    0.00001720   -0.00113677
     atom   15 type  2   force =    -0.00071106   -0.00000912    0.00012819
     atom   16 type  2   force =     0.00112015    0.00000056   -0.00076824
     atom   17 type  2   force =    -0.00066852   -0.00002299   -0.00091930
     atom   18 type  2   force =    -0.00031899   -0.00000819   -0.00015749
     atom   19 type  2   force =     0.00049980   -0.00001043   -0.00029082
     atom   20 type  2   force =    -0.00027300    0.00000329   -0.00112897
     atom   21 type  2   force =    -0.00124941    0.00000288   -0.00075614
     atom   22 type  2   force =     0.00003991    0.00001486   -0.00009988
     atom   23 type  2   force =     0.00117617    0.00000769   -0.00081803

     Total force =     0.502920     Total SCF correction =     0.004514

     Computing stress (Cartesian axis) and pressure

          total   stress  (Ry/bohr**3)                   (kbar)     P=      -72.25
  -0.00039531   0.00000411  -0.00005700          -58.15        0.60       -8.38
   0.00000411  -0.00094330  -0.00002005            0.60     -138.76       -2.95
  -0.00005700  -0.00002005  -0.00013490           -8.38       -2.95      -19.84

     kinetic stress (kbar)  43352.58      0.97     12.33
                                0.97  43289.65     -8.64
                               12.33     -8.64  43127.99

     local   stress (kbar) -90366.26     13.33  -1339.60
                               13.33 -99650.23    129.38
                            -1339.60    129.38  81229.09

     nonloc. stress (kbar)  18684.06     -0.98      1.23
                               -0.98  18705.93      2.60
                                1.23      2.60  18612.50

     hartree stress (kbar)  83682.80     -6.04    550.37
                               -6.04  87397.12    -15.14
                              550.37    -15.14  -1560.27

     exc-cor stress (kbar) -10494.44      0.01      0.43
                                0.01 -10491.50     -0.15
                                0.43     -0.15 -10489.88

     corecor stress (kbar)  -3387.82      0.01      0.10
                                0.01  -3387.97     -0.01
                                0.10     -0.01  -3386.72

     ewald   stress (kbar) -41529.06     -6.69    766.74
                               -6.69 -36001.76   -110.99
                              766.74   -110.99-127552.56

     hubbard stress (kbar)      0.00      0.00      0.00
                                0.00      0.00      0.00
                                0.00      0.00      0.00

     london  stress (kbar)      0.00      0.00      0.00
                                0.00      0.00      0.00
                                0.00      0.00      0.00

     DFT-D3  stress (kbar)      0.00      0.00      0.00
                                0.00      0.00      0.00
                                0.00      0.00      0.00

     XDM     stress (kbar)      0.00      0.00      0.00
                                0.00      0.00      0.00
                                0.00      0.00      0.00

     dft-nl  stress (kbar)      0.00      0.00      0.00
                                0.00      0.00      0.00
                                0.00      0.00      0.00

     TS-vdW  stress (kbar)      0.00      0.00      0.00
                                0.00      0.00      0.00
                                0.00      0.00      0.00

     Writing output data file /tmp//Cr_Ni(100)_ZrO2(110)+vacuum.save/

     General routines

     Parallel routines

     PAW routines

   This run was terminated on:   9:21:21  23Aug2022

   JOB DONE.