     Program PWSCF v.6.5 starts on 16Aug2022 at 12:22: 7

     R & G space division:  proc/nbgrp/npool/nimage =       8
     Waiting for input...
     Reading input from standard input

     Current dimensions of program PWSCF are:
     Max number of different atomic species (ntypx) = 10
     Max number of k-points (npk) =  40000
     Max angular momentum in pseudopotentials (lmaxx) =  3

     bravais-lattice index     =            0
     lattice parameter (alat)  =      19.5587  a.u.
     unit-cell volume          =    3240.9949 (a.u.)^3
     number of atoms/cell      =           12
     number of atomic types    =            1
     number of electrons       =       216.00
     number of Kohn-Sham states=          130
     kinetic-energy cutoff     =      45.0000  Ry
     charge density cutoff     =     360.0000  Ry
     convergence threshold     =      1.0E-06
     mixing beta               =       0.4000
     number of iterations used =            8  plain     mixing
     Exchange-correlation= SLA  PW   PSX  PSC
                           (   1   4  10   8   0   0   0)

     celldm(1)=  19.558666  celldm(2)=   0.000000  celldm(3)=   0.000000
     celldm(4)=   0.000000  celldm(5)=   0.000000  celldm(6)=   0.000000

     crystal axes: (cart. coord. in units of alat)
               a(1) = (   1.000000   0.000000   0.000000 )
               a(2) = (   0.000000   0.333333   0.000000 )
               a(3) = (   0.000000   0.000000   1.299517 )

     reciprocal axes: (cart. coord. in units 2 pi/alat)
               b(1) = (  1.000000  0.000000  0.000000 )
               b(2) = (  0.000000  3.000000  0.000000 )
               b(3) = (  0.000000  0.000000  0.769517 )

     PseudoPot. # 1 for Ni read from file:
     /home/zczlx99/q-e/pseudo/ni_pbesol_v1.4.uspp.F.UPF
     MD5 check sum: de937c0c8ae4b350e69c02b76d8a83cb
     Pseudo is Ultrasoft + core correction, Zval = 18.0
     Generated by new atomic code, or converted to UPF format
     Using radial grid of  865 points,  6 beta functions with:
                l(1) =   0
                l(2) =   0
                l(3) =   1
                l(4) =   1
                l(5) =   2
                l(6) =   2
     Q(r) pseudized with 10 coefficients,  rinner =    0.980   0.980   0.980
                                                       0.980   0.980

     atomic species   valence    mass     pseudopotential
        Ni            18.00    58.69340     Ni( 1.00)

     Starting magnetic structure
     atomic species   magnetization
        Ni           0.278

     No symmetry found

                                    s                        frac. trans.

      isym =  1     identity

 cryst.   s( 1) = (     1          0          0      )
                  (     0          1          0      )
                  (     0          0          1      )

 cart.    s( 1) = (  1.0000000  0.0000000  0.0000000 )
                  (  0.0000000  1.0000000  0.0000000 )
                  (  0.0000000  0.0000000  1.0000000 )

   Cartesian axes

     site n.     atom                  positions (alat units)
         1           Ni  tau(   1) = (   0.2156250   0.0718750   0.2802083  )
         2           Ni  tau(   2) = (   3.6656250   0.0718750   0.2802083  )
         3           Ni  tau(   3) = (   7.1156250   0.0718750   0.2802083  )
         4           Ni  tau(   4) = (   1.9406250   0.6468750   0.2802083  )
         5           Ni  tau(   5) = (   5.3906250   0.6468750   0.2802083  )
         6           Ni  tau(   6) = (   8.8406250   0.6468750   0.2802083  )
         7           Ni  tau(   7) = (   1.9406250   0.0718750   2.5218750  )
         8           Ni  tau(   8) = (   5.3906250   0.0718750   2.5218750  )
         9           Ni  tau(   9) = (   8.8406250   0.0718750   2.5218750  )
        10           Ni  tau(  10) = (   0.2156250   0.6468750   2.5218750  )
        11           Ni  tau(  11) = (   3.6656250   0.6468750   2.5218750  )
        12           Ni  tau(  12) = (   7.1156250   0.6468750   2.5218750  )

   Crystallographic axes

     site n.     atom                  positions (cryst. coord.)
         1           Ni  tau(   1) = (  0.2156250  0.2156250  0.2156250  )
         2           Ni  tau(   2) = (  3.6656250  0.2156250  0.2156250  )
         3           Ni  tau(   3) = (  7.1156250  0.2156250  0.2156250  )
         4           Ni  tau(   4) = (  1.9406250  1.9406250  0.2156250  )
         5           Ni  tau(   5) = (  5.3906250  1.9406250  0.2156250  )
         6           Ni  tau(   6) = (  8.8406250  1.9406250  0.2156250  )
         7           Ni  tau(   7) = (  1.9406250  0.2156250  1.9406250  )
         8           Ni  tau(   8) = (  5.3906250  0.2156250  1.9406250  )
         9           Ni  tau(   9) = (  8.8406250  0.2156250  1.9406250  )
        10           Ni  tau(  10) = (  0.2156250  1.9406250  1.9406250  )
        11           Ni  tau(  11) = (  3.6656250  1.9406250  1.9406250  )
        12           Ni  tau(  12) = (  7.1156250  1.9406250  1.9406250  )

     number of k points=    36  Marzari-Vanderbilt smearing, width (Ry)=  0.0147
                       cart. coord. in units 2pi/alat
        k(    1) = (   0.0000000   0.0000000   0.0000000), wk =   0.0156250
        k(    2) = (   0.0000000   0.0000000   0.1923792), wk =   0.0312500
        k(    3) = (   0.0000000   0.0000000  -0.3847584), wk =   0.0156250
        k(    4) = (   0.0000000   0.7500000   0.0000000), wk =   0.0312500
        k(    5) = (   0.0000000   0.7500000   0.1923792), wk =   0.0312500
        k(    6) = (   0.0000000   0.7500000  -0.3847584), wk =   0.0312500
        k(    7) = (   0.0000000  -1.5000000   0.0000000), wk =   0.0156250
        k(    8) = (   0.0000000  -1.5000000   0.1923792), wk =   0.0312500
        k(    9) = (   0.0000000  -1.5000000  -0.3847584), wk =   0.0156250
        k(   10) = (   0.2500000   0.0000000   0.0000000), wk =   0.0312500
        k(   11) = (   0.2500000   0.0000000   0.1923792), wk =   0.0312500
        k(   12) = (   0.2500000   0.0000000  -0.3847584), wk =   0.0312500
        k(   13) = (   0.2500000   0.7500000   0.0000000), wk =   0.0312500
        k(   14) = (   0.2500000   0.7500000   0.1923792), wk =   0.0312500
        k(   15) = (   0.2500000   0.7500000  -0.3847584), wk =   0.0312500
        k(   16) = (   0.2500000  -1.5000000   0.0000000), wk =   0.0312500
        k(   17) = (   0.2500000  -1.5000000   0.1923792), wk =   0.0312500
        k(   18) = (   0.2500000  -1.5000000  -0.3847584), wk =   0.0312500
        k(   19) = (  -0.5000000   0.0000000   0.0000000), wk =   0.0156250
        k(   20) = (  -0.5000000   0.0000000   0.1923792), wk =   0.0312500
        k(   21) = (  -0.5000000   0.0000000  -0.3847584), wk =   0.0156250
        k(   22) = (  -0.5000000   0.7500000   0.0000000), wk =   0.0312500
        k(   23) = (  -0.5000000   0.7500000   0.1923792), wk =   0.0312500
        k(   24) = (  -0.5000000   0.7500000  -0.3847584), wk =   0.0312500
        k(   25) = (  -0.5000000  -1.5000000   0.0000000), wk =   0.0156250
        k(   26) = (  -0.5000000  -1.5000000   0.1923792), wk =   0.0312500
        k(   27) = (  -0.5000000  -1.5000000  -0.3847584), wk =   0.0156250
        k(   28) = (   0.0000000  -0.7500000   0.1923792), wk =   0.0312500
        k(   29) = (  -0.2500000   0.0000000   0.1923792), wk =   0.0312500
        k(   30) = (  -0.2500000   0.7500000   0.0000000), wk =   0.0312500
        k(   31) = (  -0.2500000  -0.7500000   0.1923792), wk =   0.0312500
        k(   32) = (  -0.2500000   0.7500000  -0.1923792), wk =   0.0312500
        k(   33) = (   0.2500000  -0.7500000  -0.1923792), wk =   0.0312500
        k(   34) = (  -0.2500000   0.7500000   0.3847584), wk =   0.0312500
        k(   35) = (  -0.2500000   1.5000000   0.1923792), wk =   0.0312500
        k(   36) = (   0.5000000  -0.7500000   0.1923792), wk =   0.0312500

                       cryst. coord.
        k(    1) = (   0.0000000   0.0000000   0.0000000), wk =   0.0156250
        k(    2) = (   0.0000000   0.0000000   0.2500000), wk =   0.0312500
        k(    3) = (   0.0000000   0.0000000  -0.5000000), wk =   0.0156250
        k(    4) = (   0.0000000   0.2500000   0.0000000), wk =   0.0312500
        k(    5) = (   0.0000000   0.2500000   0.2500000), wk =   0.0312500
        k(    6) = (   0.0000000   0.2500000  -0.5000000), wk =   0.0312500
        k(    7) = (   0.0000000  -0.5000000   0.0000000), wk =   0.0156250
        k(    8) = (   0.0000000  -0.5000000   0.2500000), wk =   0.0312500
        k(    9) = (   0.0000000  -0.5000000  -0.5000000), wk =   0.0156250
        k(   10) = (   0.2500000   0.0000000   0.0000000), wk =   0.0312500
        k(   11) = (   0.2500000   0.0000000   0.2500000), wk =   0.0312500
        k(   12) = (   0.2500000   0.0000000  -0.5000000), wk =   0.0312500
        k(   13) = (   0.2500000   0.2500000   0.0000000), wk =   0.0312500
        k(   14) = (   0.2500000   0.2500000   0.2500000), wk =   0.0312500
        k(   15) = (   0.2500000   0.2500000  -0.5000000), wk =   0.0312500
        k(   16) = (   0.2500000  -0.5000000   0.0000000), wk =   0.0312500
        k(   17) = (   0.2500000  -0.5000000   0.2500000), wk =   0.0312500
        k(   18) = (   0.2500000  -0.5000000  -0.5000000), wk =   0.0312500
        k(   19) = (  -0.5000000   0.0000000   0.0000000), wk =   0.0156250
        k(   20) = (  -0.5000000   0.0000000   0.2500000), wk =   0.0312500
        k(   21) = (  -0.5000000   0.0000000  -0.5000000), wk =   0.0156250
        k(   22) = (  -0.5000000   0.2500000   0.0000000), wk =   0.0312500
        k(   23) = (  -0.5000000   0.2500000   0.2500000), wk =   0.0312500
        k(   24) = (  -0.5000000   0.2500000  -0.5000000), wk =   0.0312500
        k(   25) = (  -0.5000000  -0.5000000   0.0000000), wk =   0.0156250
        k(   26) = (  -0.5000000  -0.5000000   0.2500000), wk =   0.0312500
        k(   27) = (  -0.5000000  -0.5000000  -0.5000000), wk =   0.0156250
        k(   28) = (   0.0000000  -0.2500000   0.2500000), wk =   0.0312500
        k(   29) = (  -0.2500000   0.0000000   0.2500000), wk =   0.0312500
        k(   30) = (  -0.2500000   0.2500000   0.0000000), wk =   0.0312500
        k(   31) = (  -0.2500000  -0.2500000   0.2500000), wk =   0.0312500
        k(   32) = (  -0.2500000   0.2500000  -0.2500000), wk =   0.0312500
        k(   33) = (   0.2500000  -0.2500000  -0.2500000), wk =   0.0312500
        k(   34) = (  -0.2500000   0.2500000   0.5000000), wk =   0.0312500
        k(   35) = (  -0.2500000   0.5000000   0.2500000), wk =   0.0312500
        k(   36) = (   0.5000000  -0.2500000   0.2500000), wk =   0.0312500

     Check: negative core charge=   -0.000003

     Initial potential from superposition of free atoms

     starting charge  192.00000, renormalised to  216.00000
     Starting wfcs are  156 randomized atomic wfcs

     Self-consistent Calculation

     iteration #  1     ecut=    45.00 Ry     beta= 0.40
     Davidson diagonalization with overlap
     ethr =  1.00E-02,  avg # of iterations =  6.8

     total energy              =   -3457.82932080 Ry
     Harris-Foulkes estimate   =   -4244.00459791 Ry
[...]
     Harris-Foulkes estimate   =   -4095.24996652 Ry
     estimated scf accuracy    <       0.00000197 Ry

[...]

     iteration #156     ecut=    45.00 Ry     beta= 0.40
     Davidson diagonalization with overlap
     ethr =  5.06E-10,  avg # of iterations =  1.0

     Magnetic moment per site:
     atom:    1    charge:   10.1132    magn:   -0.0130    constr:    0.0000
     atom:    2    charge:    9.8008    magn:    0.0128    constr:    0.0000
     atom:    3    charge:   10.1124    magn:   -0.0106    constr:    0.0000
     atom:    4    charge:   10.1110    magn:    0.0095    constr:    0.0000
     atom:    5    charge:    9.8011    magn:   -0.0187    constr:    0.0000
     atom:    6    charge:   10.1145    magn:    0.0113    constr:    0.0000
     atom:    7    charge:   10.1109    magn:   -0.0042    constr:    0.0000
     atom:    8    charge:    9.8009    magn:    0.0162    constr:    0.0000
     atom:    9    charge:   10.1145    magn:   -0.0046    constr:    0.0000
     atom:   10    charge:   10.1133    magn:    0.0093    constr:    0.0000
     atom:   11    charge:    9.8011    magn:   -0.0023    constr:    0.0000
     atom:   12    charge:   10.1125    magn:    0.0072    constr:    0.0000

     End of self-consistent calculation

 ------ SPIN UP ------------

          k = 0.0000 0.0000 0.0000 ( 16411 PWs)   bands (ev):

  -122.8309-122.8290-122.8130-122.8045-102.6468-102.6457-102.6057-102.6008
  -100.1382-100.1329-100.1179-100.1005 -80.1323 -80.1298 -79.9998 -79.9958
   -72.9546 -72.9538 -72.9381 -72.9325 -72.8639 -72.8635 -72.8474 -72.8430
   -64.8117 -64.8116 -64.7872 -64.7822 -64.7406 -64.7393 -64.7083 -64.7046
   -61.2987 -61.2928 -61.2730 -61.2505 -60.4804 -60.4744 -60.4635 -60.4493
   -60.3720 -60.3683 -60.3551 -60.3416 -58.6928 -58.6895 -58.5179 -58.5125
   -14.9741 -14.9715 -14.9576 -14.9521 -14.6679 -14.6646 -14.6603 -14.6565
   -13.0236 -12.9975 -12.9693 -12.9372  -9.0138  -8.9932  -8.9330  -8.9082
    -8.7860  -8.7787  -8.7372  -8.7347  -4.0282  -3.2701  -2.3523  -2.0541
    -2.0324  -2.0154  -1.8690  -1.8445  -1.8016  -1.7126  -1.7080  -1.4368
    -1.3929  -0.8619  -0.2070  -0.0813   0.0245   0.0475   0.1144   0.1290
     0.1313   0.1504   0.4212   0.4509   0.4874   0.6091   0.7449   1.0934
     1.2087   1.4353   1.4723   1.5025   1.5544   1.5650   1.5805   1.5920
     1.6111   1.6280   1.6338   1.7110   1.7560   1.9817   2.0032   2.1158
     2.3516   2.5035   2.5360   2.8149   3.1334   3.1416   3.5098   3.9185
     4.4976   4.5792   5.0905   6.0048   6.4866   6.9387   7.5673   7.5712
     7.6804   7.9619

     occupation numbers
     1.0000   1.0000   1.0000   1.0000   1.0000   1.0000   1.0000   1.0000
     1.0000   1.0000   1.0000   1.0000   1.0000   1.0000   1.0000   1.0000
     1.0000   1.0000   1.0000   1.0000   1.0000   1.0000   1.0000   1.0000
     1.0000   1.0000   1.0000   1.0000   1.0000   1.0000   1.0000   1.0000
     1.0000   1.0000   1.0000   1.0000   1.0000   1.0000   1.0000   1.0000
     1.0000   1.0000   1.0000   1.0000   1.0000   1.0000   1.0000   1.0000
     1.0000   1.0000   1.0000   1.0000   1.0000   1.0000   1.0000   1.0000
     1.0000   1.0000   1.0000   1.0000   1.0000   1.0000   1.0000   1.0000
     1.0000   1.0000   1.0000   1.0000   1.0000   1.0000   1.0000   1.0000
     1.0000   1.0000   1.0000   1.0000   1.0000   1.0000   1.0000   1.0000
     1.0000   1.0000   1.0000   1.0000   1.0000   1.0000   1.0000   1.0000
     1.0000   1.0000   1.0000   1.0000   1.0000   1.0000   1.0000   1.0000
     1.0002   1.0223   1.0357   1.0490   1.0724   1.0763   1.0807   1.0827
     1.0829   1.0790   1.0766   0.9806   0.8639   0.1436   0.1078   0.0169
     0.0000   0.0000   0.0000   0.0000   0.0000   0.0000   0.0000   0.0000
     0.0000   0.0000   0.0000   0.0000   0.0000   0.0000   0.0000   0.0000
     0.0000   0.0000

[...]

          k =-0.5000 0.0000 0.0000 ( 16450 PWs)   bands (ev):

[...]

 ------ SPIN DOWN ----------

[...]

          k =-0.2500 1.5000 0.1924 ( 16576 PWs)   bands (ev):

[...]

          k = 0.5000-0.7500 0.1924 ( 16544 PWs)   bands (ev):

  -122.8322-122.8240-122.8085-122.8062-102.6470-102.6424-102.6024-102.6015
  -100.1404-100.1207-100.1059-100.1014 -80.1315 -80.1278 -79.9978 -79.9956
   -72.9556 -72.9503 -72.9350 -72.9339 -72.8651 -72.8609 -72.8452 -72.8451
   -64.8127 -64.8080 -64.7839 -64.7836 -64.7404 -64.7368 -64.7067 -64.7057
   -61.3016 -61.2779 -61.2578 -61.2522 -60.4816 -60.4647 -60.4542 -60.4494
   -60.3748 -60.3584 -60.3458 -60.3431 -58.6911 -58.6860 -58.5148 -58.5119
   -14.9675 -14.9648 -14.9534 -14.9480 -14.6870 -14.6844 -14.6605 -14.6575
   -12.9143 -12.9093 -12.8584 -12.8517  -8.8795  -8.8607  -8.8480  -8.8444
    -8.8168  -8.8130  -8.7981  -8.7973  -3.4056  -2.6815  -2.1474  -1.9252
    -1.8994  -1.8756  -1.8673  -1.8443  -1.7834  -1.7783  -1.7377  -1.3770
    -0.6581  -0.5025  -0.1156   0.0068   0.0375   0.1774   0.2056   0.2855
     0.2942   0.4492   0.5243   0.5826   0.6924   0.7763   0.9224   1.0224
     1.0783   1.2633   1.2925   1.3452   1.4142   1.4226   1.4952   1.5111
     1.5797   1.6182   1.9414   1.9630   1.9804   2.0599   2.0706   2.2346
     2.5046   2.6120   2.6390   2.8336   2.8977   3.2816   3.5450   3.8185
     4.0655   4.9348   5.1469   5.5877   5.8055   6.7047   6.9529   7.0335
     7.1689   7.2338

     occupation numbers
     1.0000   1.0000   1.0000   1.0000   1.0000   1.0000   1.0000   1.0000
     1.0000   1.0000   1.0000   1.0000   1.0000   1.0000   1.0000   1.0000
     1.0000   1.0000   1.0000   1.0000   1.0000   1.0000   1.0000   1.0000
     1.0000   1.0000   1.0000   1.0000   1.0000   1.0000   1.0000   1.0000
     1.0000   1.0000   1.0000   1.0000   1.0000   1.0000   1.0000   1.0000
     1.0000   1.0000   1.0000   1.0000   1.0000   1.0000   1.0000   1.0000
     1.0000   1.0000   1.0000   1.0000   1.0000   1.0000   1.0000   1.0000
     1.0000   1.0000   1.0000   1.0000   1.0000   1.0000   1.0000   1.0000
     1.0000   1.0000   1.0000   1.0000   1.0000   1.0000   1.0000   1.0000
     1.0000   1.0000   1.0000   1.0000   1.0000   1.0000   1.0000   1.0000
     1.0000   1.0000   1.0000   1.0000   1.0000   1.0000   1.0000   1.0000
     1.0000   1.0000   1.0000   1.0000   1.0000   1.0000   1.0000   1.0000
     1.0000   1.0009   1.0017   1.0051   1.0165   1.0186   1.0456   1.0530
     1.0805   1.0817   0.2321   0.1811   0.1460   0.0457   0.0382   0.0012
     0.0000   0.0000   0.0000   0.0000   0.0000   0.0000   0.0000   0.0000
     0.0000   0.0000   0.0000   0.0000   0.0000   0.0000   0.0000   0.0000
     0.0000   0.0000

     the Fermi energy is     1.8854 ev

!    total energy              =   -4095.24996628 Ry
     Harris-Foulkes estimate   =   -4095.24996642 Ry
     estimated scf accuracy    <       0.00000089 Ry

     The total energy is the sum of the following terms:

     one-electron contribution =   -9930.51893735 Ry
     hartree contribution      =    4946.83644305 Ry
     xc contribution           =    -429.31797928 Ry
     ewald contribution        =    1317.73434573 Ry
     smearing contrib. (-TS)   =       0.01616158 Ry

     total magnetization       =     0.02 Bohr mag/cell
     absolute magnetization    =     0.21 Bohr mag/cell

     convergence has been achieved in 156 iterations

     Forces acting on atoms (cartesian axes, Ry/au):

     atom    1 type  1   force =    13.94557832    0.05134187   -0.00988168
     atom    2 type  1   force =    -0.04248372    0.04207968   -0.01653091
     atom    3 type  1   force =   -13.91291466    0.04230262   -0.00601993
     atom    4 type  1   force =    13.91293695   -0.04238297   -0.00609233
     atom    5 type  1   force =     0.04127343   -0.04213994   -0.01650049
     atom    6 type  1   force =   -13.94462916   -0.05132934   -0.00995439
     atom    7 type  1   force =    13.91212135    0.04238202    0.00610971
     atom    8 type  1   force =     0.04144859    0.04212865    0.01643231
     atom    9 type  1   force =   -13.94380077    0.05134773    0.00996490
     atom   10 type  1   force =    13.94797646   -0.05129550    0.00988085
     atom   11 type  1   force =    -0.04248767   -0.04210223    0.01653709
     atom   12 type  1   force =   -13.91501912   -0.04233259    0.00605487
     The non-local contrib.  to forces
     atom    1 type  1   force =    -9.14439460    0.22780977   -0.04243944
     atom    2 type  1   force =    -0.09790116   -0.05353778    0.03279093
     atom    3 type  1   force =     8.87925591    0.31482971   -0.02427623
     atom    4 type  1   force =    -8.87778658   -0.31486150   -0.02437436
     atom    5 type  1   force =     0.09832127    0.05342957    0.03280354
     atom    6 type  1   force =     9.14687645   -0.22773442   -0.04255021
     atom    7 type  1   force =    -8.87884258    0.31493483    0.02445949
     atom    8 type  1   force =     0.09849623   -0.05339511   -0.03280706
     atom    9 type  1   force =     9.14797907    0.22783115    0.04263342
     atom   10 type  1   force =    -9.14163890   -0.22770121    0.04250661
     atom   11 type  1   force =    -0.09795083    0.05366907   -0.03271980
     atom   12 type  1   force =     8.87696371   -0.31478548    0.02439310
     The ionic contribution  to forces
     atom    1 type  1   force =   168.26989592   10.82157691   89.66473451
     atom    2 type  1   force =   -56.73312470   11.65285433   81.39984242
     atom    3 type  1   force =  -117.10937217   11.81103073   92.62975447
     atom    4 type  1   force =   117.10937217  -11.81103073   92.62975447
     atom    5 type  1   force =    56.73312470  -11.65285433   81.39984242
     atom    6 type  1   force =  -168.26989592  -10.82157691   89.66473451
     atom    7 type  1   force =   117.10937217   11.81103073  -92.62975447
     atom    8 type  1   force =    56.73312470   11.65285433  -81.39984242
     atom    9 type  1   force =  -168.26989592   10.82157691  -89.66473451
     atom   10 type  1   force =   168.26989592  -10.82157691  -89.66473451
     atom   11 type  1   force =   -56.73312470  -11.65285433  -81.39984242
     atom   12 type  1   force =  -117.10937217  -11.81103073  -92.62975447
     The local contribution  to forces
     atom    1 type  1   force =  -145.13883362  -10.99699756  -89.63216329
     atom    2 type  1   force =    56.79341863  -11.56127301  -81.44818479
     atom    3 type  1   force =    94.27550052  -12.08167782  -92.61152600
     atom    4 type  1   force =   -94.27414814   12.08171904  -92.61134270
     atom    5 type  1   force =   -56.79446335   11.56143248  -81.44821686
     atom    6 type  1   force =   145.14016020   10.99679639  -89.63190815
     atom    7 type  1   force =   -94.27270581  -12.08189188   92.61114638
     atom    8 type  1   force =   -56.79484618  -11.56151267   81.44825709
     atom    9 type  1   force =   145.13871149  -10.99699019   89.63172054
     atom   10 type  1   force =  -145.14196035   10.99678413   89.63199570
     atom   11 type  1   force =    56.79361257   11.56112894   81.44800069
     atom   12 type  1   force =    94.27700514   12.08162446   92.61127040
     The core correction contribution to forces
     atom    1 type  1   force =    -0.03879616   -0.00107548   -0.00010344
     atom    2 type  1   force =    -0.00507886    0.00411242   -0.00092626
     atom    3 type  1   force =     0.04251671   -0.00175862   -0.00005016
     atom    4 type  1   force =    -0.04248858    0.00176027   -0.00005013
     atom    5 type  1   force =     0.00507569   -0.00410895   -0.00092653
     atom    6 type  1   force =     0.03882394    0.00107705   -0.00010390
     atom    7 type  1   force =    -0.04248510   -0.00175884    0.00005042
     atom    8 type  1   force =     0.00507862    0.00411148    0.00092594
     atom    9 type  1   force =     0.03881867   -0.00107560    0.00010373
     atom   10 type  1   force =    -0.03880498    0.00107704    0.00010379
     atom   11 type  1   force =    -0.00507697   -0.00411107    0.00092690
     atom   12 type  1   force =     0.04252456    0.00176010    0.00004985
     The Hubbard contrib.    to forces
     atom    1 type  1   force =     0.00000000    0.00000000    0.00000000
     atom    2 type  1   force =     0.00000000    0.00000000    0.00000000
     atom    3 type  1   force =     0.00000000    0.00000000    0.00000000
     atom    4 type  1   force =     0.00000000    0.00000000    0.00000000
     atom    5 type  1   force =     0.00000000    0.00000000    0.00000000
     atom    6 type  1   force =     0.00000000    0.00000000    0.00000000
     atom    7 type  1   force =     0.00000000    0.00000000    0.00000000
     atom    8 type  1   force =     0.00000000    0.00000000    0.00000000
     atom    9 type  1   force =     0.00000000    0.00000000    0.00000000
     atom   10 type  1   force =     0.00000000    0.00000000    0.00000000
     atom   11 type  1   force =     0.00000000    0.00000000    0.00000000
     atom   12 type  1   force =     0.00000000    0.00000000    0.00000000
     The SCF correction term to forces
     atom    1 type  1   force =    -0.00153068    0.00006203    0.00011850
     atom    2 type  1   force =     0.00096490   -0.00004249   -0.00002470
     atom    3 type  1   force =    -0.00005309   -0.00008759    0.00010649
     atom    4 type  1   force =    -0.00124939    0.00006374   -0.00005110
     atom    5 type  1   force =    -0.00002234   -0.00000491    0.00002544
     atom    6 type  1   force =     0.00016871    0.00014234   -0.00009814
     atom    7 type  1   force =    -0.00245480    0.00010098    0.00023639
     atom    8 type  1   force =     0.00035776    0.00010442   -0.00007273
     atom    9 type  1   force =     0.00134846    0.00003926    0.00027024
     atom   10 type  1   force =     0.00124730    0.00015524    0.00003777
     atom   11 type  1   force =     0.00081479    0.00009896    0.00020024
     atom   12 type  1   force =    -0.00137783    0.00013286    0.00012449

     Total force =    39.398665     Total SCF correction =     0.004159

     Computing stress (Cartesian axis) and pressure

          total   stress  (Ry/bohr**3)                   (kbar)     P=     1610.28
   0.03355235   0.00000002  -0.00000001         4935.72        0.00       -0.00
   0.00000002  -0.00053056  -0.00000000            0.00      -78.05       -0.00
  -0.00000001  -0.00000000  -0.00018230           -0.00       -0.00      -26.82

     kinetic stress (kbar)  16558.34     -0.01      0.00
                               -0.01  17281.22      0.00
                                0.00      0.00  17451.22

     local   stress (kbar)-330102.77      0.04     -0.05
                                0.04-259602.40     -0.01
                               -0.05     -0.01 252633.89

     nonloc. stress (kbar)   7383.82     -0.01      0.00
                               -0.01   8674.26      0.00
                                0.00      0.00   8653.78

     hartree stress (kbar) 171881.68     -0.02      0.04
                               -0.02 151160.17      0.00
                                0.04      0.00 -98510.60

     exc-cor stress (kbar)  -5147.33      0.00      0.00
                                0.00  -5169.55      0.00
                                0.00      0.00  -5174.12

     corecor stress (kbar)   -979.41      0.00     -0.00
                                0.00   -985.89      0.00
                               -0.00      0.00   -985.91

     ewald   stress (kbar) 145341.38     -0.00     -0.00
                               -0.00  88564.15     -0.00
                               -0.00     -0.00-174095.08

     hubbard stress (kbar)      0.00      0.00      0.00
                                0.00      0.00      0.00
                                0.00      0.00      0.00

     london  stress (kbar)      0.00      0.00      0.00
                                0.00      0.00      0.00
                                0.00      0.00      0.00

     DFT-D3  stress (kbar)      0.00      0.00      0.00
                                0.00      0.00      0.00
                                0.00      0.00      0.00

     XDM     stress (kbar)      0.00      0.00      0.00
                                0.00      0.00      0.00
                                0.00      0.00      0.00

     dft-nl  stress (kbar)      0.00      0.00      0.00
                                0.00      0.00      0.00
                                0.00      0.00      0.00

     TS-vdW  stress (kbar)      0.00      0.00      0.00
                                0.00      0.00      0.00
                                0.00      0.00      0.00

     Writing output data file /tmp//ni_100_slab+vacuum_scf.save/

     General routines

     Parallel routines

   This run was terminated on:   5:42:56  17Aug2022

   JOB DONE.