     Program PWSCF v.6.5 starts on 22Aug2022 at 17:10:28

     R & G space division:  proc/nbgrp/npool/nimage =       8
     Waiting for input...
     Reading input from standard input

     Current dimensions of program PWSCF are:
     Max number of different atomic species (ntypx) = 10
     Max number of k-points (npk) =  40000
     Max angular momentum in pseudopotentials (lmaxx) =  3
               file O.pbesol-n-kjpaw_psl.0.1.UPF: wavefunction(s)  2P renormalized

     bravais-lattice index     =            0
     lattice parameter (alat)  =      19.1327  a.u.
     unit-cell volume          =    1831.1486 (a.u.)^3
     number of atoms/cell      =           24
     number of atomic types    =            4
     number of electrons       =       312.00
     number of Kohn-Sham states=          187
     kinetic-energy cutoff     =     100.0000  Ry
     charge density cutoff     =     800.0000  Ry
     convergence threshold     =      1.0E-06
     mixing beta               =       0.4000
     number of iterations used =            8  plain     mixing
     Exchange-correlation= SLA  PW   PSX  PSC
                           (   1   4  10   8   0   0   0)

     celldm(1)=  19.132690  celldm(2)=   0.000000  celldm(3)=   0.000000
     celldm(4)=   0.000000  celldm(5)=   0.000000  celldm(6)=   0.000000

     crystal axes: (cart. coord. in units of alat)
               a(1) = (   1.000000   0.000000   0.000000 )
               a(2) = (   0.000000   0.353553   0.000000 )
               a(3) = (   0.000000   0.000000   0.739504 )

     reciprocal axes: (cart. coord. in units 2 pi/alat)
               b(1) = (  1.000000  0.000000  0.000000 )
               b(2) = (  0.000000  2.828428  0.000000 )
               b(3) = (  0.000000  0.000000  1.352258 )

     PseudoPot. # 1 for Ni read from file:
     /home/zczlx99/q-e/pseudo/DFT/ni_pbesol_v1.4.uspp.F.UPF
     MD5 check sum: de937c0c8ae4b350e69c02b76d8a83cb
     Pseudo is Ultrasoft + core correction, Zval = 18.0
     Generated by new atomic code, or converted to UPF format
     Using radial grid of  865 points,  6 beta functions with:
                l(1) =   0
                l(2) =   0
                l(3) =   1
                l(4) =   1
                l(5) =   2
                l(6) =   2
     Q(r) pseudized with 10 coefficients,  rinner =    0.980   0.980   0.980
                                                       0.980   0.980

     PseudoPot. # 2 for O  read from file:
     /home/zczlx99/q-e/pseudo/DFT/O.pbesol-n-kjpaw_psl.0.1.UPF
     MD5 check sum: 81d73d1479e654e5638b0319f0d6c2c7
     Pseudo is Projector augmented-wave + core cor, Zval =  6.0
     Generated using "atomic" code by A. Dal Corso v.6.0 svn rev. 13079
     Shape of augmentation charge: BESSEL
     Using radial grid of 1095 points,  4 beta functions with:
                l(1) =   0
                l(2) =   0
                l(3) =   1
                l(4) =   1
     Q(r) pseudized with 0 coefficients

     PseudoPot. # 3 for Ti read from file:
     /home/zczlx99/q-e/pseudo/DFT/ti_pbesol_v1.4.uspp.F.UPF
     MD5 check sum: 193cf2c0c3c6a4da613d69453fa7e3e9
     Pseudo is Ultrasoft + core correction, Zval = 12.0
     Generated by new atomic code, or converted to UPF format
     Using radial grid of  851 points,  6 beta functions with:
                l(1) =   0
                l(2) =   0
                l(3) =   1
                l(4) =   1
                l(5) =   2
                l(6) =   2
     Q(r) pseudized with  6 coefficients,  rinner =    1.000   1.000   1.000
                                                       1.000   1.000

     PseudoPot. # 4 for Zr read from file:
     /home/zczlx99/q-e/pseudo/DFT/zr_pbesol_v1.uspp.F.UPF
     MD5 check sum: f29f2a20533738a515abe666fee35838
     Pseudo is Ultrasoft + core correction, Zval = 12.0
     Generated by new atomic code, or converted to UPF format
     Using radial grid of  887 points,  6 beta functions with:
                l(1) =   0
                l(2) =   0
                l(3) =   1
                l(4) =   1
                l(5) =   2
                l(6) =   2
     Q(r) pseudized with  6 coefficients,  rinner =    1.200   1.200   1.200
                                                       1.200   1.200

     atomic species   valence    mass     pseudopotential
        Ni            18.00    58.69340     Ni( 1.00)
        O              6.00    15.99940     O ( 1.00)
        Ti            12.00    47.86700     Ti( 1.00)
        Zr            12.00    91.22400     Zr( 1.00)

     Starting magnetic structure
     atomic species   magnetization
        Ni           0.278
        O            0.100
        Ti           0.417
        Zr           0.417

     No symmetry found

                                    s                        frac. trans.

      isym =  1     identity

 cryst.   s( 1) = (     1          0          0      )
                  (     0          1          0      )
                  (     0          0          1      )

 cart.    s( 1) = (  1.0000000  0.0000000  0.0000000 )
                  (  0.0000000  1.0000000  0.0000000 )
                  (  0.0000000  0.0000000  1.0000000 )

   Cartesian axes

     site n.     atom                  positions (alat units)
         1           Zr  tau(   1) = (   0.0468750   0.1459866   0.1459866  )
         2           Zr  tau(   2) = (   0.5468750   0.1459866   0.1459866  )
         3           O   tau(   3) = (   0.1718750   0.1459866   0.3227633  )
         4           O   tau(   4) = (   0.6718750   0.1459866   0.3227633  )
         5           O   tau(   5) = (   0.4218749   0.1459866   0.3227633  )
         6           O   tau(   6) = (   0.9218750   0.1459866   0.3227633  )
         7           O   tau(   7) = (   0.1718750   0.3227633   0.1459866  )
         8           O   tau(   8) = (   0.6718750   0.3227633   0.1459866  )
         9           O   tau(   9) = (   0.4218749   0.3227633   0.1459866  )
        10           O   tau(  10) = (   0.9218750   0.3227633   0.1459866  )
        11           Ni  tau(  11) = (   0.0699886   0.1523850   0.5188821  )
        12           Ni  tau(  12) = (   0.4107433   0.1523850   0.5188821  )
        13           Ni  tau(  13) = (   0.7514981   0.1523850   0.5188821  )
        14           Ni  tau(  14) = (   0.2403659   0.3227624   0.5188821  )
        15           Ni  tau(  15) = (   0.5811207   0.3227624   0.5188821  )
        16           Ni  tau(  16) = (   0.9218755   0.3227624   0.5188821  )
        17           Ni  tau(  17) = (   0.2403659   0.1523850   0.6892595  )
        18           Ni  tau(  18) = (   0.5811207   0.1523850   0.6892595  )
        19           Ni  tau(  19) = (   0.9218755   0.1523850   0.6892595  )
        20           Ni  tau(  20) = (   0.0699886   0.3227624   0.6892595  )
        21           Ni  tau(  21) = (   0.4107433   0.3227624   0.6892595  )
        22           Ni  tau(  22) = (   0.7514981   0.3227624   0.6892595  )
        23           Ti  tau(  23) = (   0.2968750   0.3227633   0.3227633  )
        24           Ti  tau(  24) = (   0.7968750   0.3227633   0.3227633  )

   Crystallographic axes

     site n.     atom                  positions (cryst. coord.)
         1           Zr  tau(   1) = (  0.0468750  0.4129124  0.1974114  )
         2           Zr  tau(   2) = (  0.5468750  0.4129124  0.1974114  )
         3           O   tau(   3) = (  0.1718750  0.4129124  0.4364591  )
         4           O   tau(   4) = (  0.6718750  0.4129124  0.4364591  )
         5           O   tau(   5) = (  0.4218749  0.4129124  0.4364591  )
         6           O   tau(   6) = (  0.9218750  0.4129124  0.4364591  )
         7           O   tau(   7) = (  0.1718750  0.9129127  0.1974114  )
         8           O   tau(   8) = (  0.6718750  0.9129127  0.1974114  )
         9           O   tau(   9) = (  0.4218749  0.9129127  0.1974114  )
        10           O   tau(  10) = (  0.9218750  0.9129127  0.1974114  )
        11           Ni  tau(  11) = (  0.0699886  0.4310101  0.7016622  )
        12           Ni  tau(  12) = (  0.4107433  0.4310101  0.7016622  )
        13           Ni  tau(  13) = (  0.7514981  0.4310101  0.7016622  )
        14           Ni  tau(  14) = (  0.2403659  0.9129102  0.7016622  )
        15           Ni  tau(  15) = (  0.5811207  0.9129102  0.7016622  )
        16           Ni  tau(  16) = (  0.9218755  0.9129102  0.7016622  )
        17           Ni  tau(  17) = (  0.2403659  0.4310101  0.9320563  )
        18           Ni  tau(  18) = (  0.5811207  0.4310101  0.9320563  )
        19           Ni  tau(  19) = (  0.9218755  0.4310101  0.9320563  )
        20           Ni  tau(  20) = (  0.0699886  0.9129102  0.9320563  )
        21           Ni  tau(  21) = (  0.4107433  0.9129102  0.9320563  )
        22           Ni  tau(  22) = (  0.7514981  0.9129102  0.9320563  )
        23           Ti  tau(  23) = (  0.2968750  0.9129127  0.4364591  )
        24           Ti  tau(  24) = (  0.7968750  0.9129127  0.4364591  )

     number of k points=     8  Marzari-Vanderbilt smearing, width (Ry)=  0.0147
                       cart. coord. in units 2pi/alat
        k(    1) = (   0.0000000   0.0000000   0.0000000), wk =   0.1250000
        k(    2) = (   0.0000000   0.0000000  -0.6761288), wk =   0.1250000
        k(    3) = (   0.0000000  -1.4142138   0.0000000), wk =   0.1250000
        k(    4) = (   0.0000000  -1.4142138  -0.6761288), wk =   0.1250000
        k(    5) = (  -0.5000000   0.0000000   0.0000000), wk =   0.1250000
        k(    6) = (  -0.5000000   0.0000000  -0.6761288), wk =   0.1250000
        k(    7) = (  -0.5000000  -1.4142138   0.0000000), wk =   0.1250000
        k(    8) = (  -0.5000000  -1.4142138  -0.6761288), wk =   0.1250000

                       cryst. coord.
        k(    1) = (   0.0000000   0.0000000   0.0000000), wk =   0.1250000
        k(    2) = (   0.0000000   0.0000000  -0.5000000), wk =   0.1250000
        k(    3) = (   0.0000000  -0.5000000   0.0000000), wk =   0.1250000
        k(    4) = (   0.0000000  -0.5000000  -0.5000000), wk =   0.1250000
        k(    5) = (  -0.5000000   0.0000000   0.0000000), wk =   0.1250000
        k(    6) = (  -0.5000000   0.0000000  -0.5000000), wk =   0.1250000
        k(    7) = (  -0.5000000  -0.5000000   0.0000000), wk =   0.1250000
        k(    8) = (  -0.5000000  -0.5000000  -0.5000000), wk =   0.1250000

     Check: negative core charge=   -0.000003

     Initial potential from superposition of free atoms

     starting charge  285.99596, renormalised to  312.00000
     Starting wfcs are  234 randomized atomic wfcs
     Checking if some PAW data can be deallocated...

     Self-consistent Calculation

     iteration #  1     ecut=   100.00 Ry     beta= 0.40
     Davidson diagonalization with overlap
     ethr =  1.00E-02,  avg # of iterations =  3.1

     total energy              =   -4801.07395315 Ry
     Harris-Foulkes estimate   =   -4933.77269288 Ry
     estimated scf accuracy    <     251.78841565 Ry

     total magnetization       =    22.14 Bohr mag/cell
     absolute magnetization    =    23.88 Bohr mag/cell

[...]

     Magnetic moment per site:
[...]

     one-electron contribution =   -3736.97974561 Ry
     hartree contribution      =    2039.09999552 Ry
     xc contribution           =    -552.01234726 Ry
     ewald contribution        =   -2560.53629313 Ry
     one-center paw contrib.   =     -72.90335139 Ry
      -> PAW hartree energy AE =      25.77250336 Ry
      -> PAW hartree energy PS =     -25.65299458 Ry
      -> PAW xc energy AE      =     -16.13854819 Ry
      -> PAW xc energy PS      =       6.90489300 Ry
      -> total E_H with PAW    =    2039.21950431 Ry
      -> total E_XC with PAW   =    -561.24600246 Ry
     smearing contrib. (-TS)   =       0.00201415 Ry

     total magnetization       =     8.44 Bohr mag/cell
     absolute magnetization    =     9.82 Bohr mag/cell

     convergence has been achieved in 104 iterations

     Forces acting on atoms (cartesian axes, Ry/au):

     atom    1 type  4   force =     0.02553300   -0.00280120    0.21490799
     atom    2 type  4   force =    -0.02047493   -0.00646211    0.25700386
     atom    3 type  2   force =     0.02565215    0.00028508    0.04112255
     atom    4 type  2   force =     0.07001924   -0.00147249    0.06092165
     atom    5 type  2   force =    -0.04968813    0.00037547    0.05411357
     atom    6 type  2   force =    -0.03374718   -0.00172327    0.02909958
     atom    7 type  2   force =    -0.01442100   -0.00044759   -0.02932351
     atom    8 type  2   force =     0.02737493    0.00121391   -0.02071960
     atom    9 type  2   force =    -0.00741366    0.00154295   -0.03227999
     atom   10 type  2   force =    -0.01660947   -0.00100899   -0.00387697
     atom   11 type  1   force =     0.04685221   -0.02386030   -0.07423753
     atom   12 type  1   force =     0.00629925   -0.01361240   -0.02879454
     atom   13 type  1   force =    -0.02484081   -0.01275529   -0.03391228
     atom   14 type  1   force =    -0.01140238    0.01525016    0.08521026
     atom   15 type  1   force =     0.00175854    0.01346696    0.01828787
     atom   16 type  1   force =    -0.03081656    0.02110341    0.02896498
     atom   17 type  1   force =     0.01368579   -0.01061562   -0.02883817
     atom   18 type  1   force =     0.02541205   -0.00960171   -0.21427686
     atom   19 type  1   force =    -0.07071315   -0.01854450   -0.07544292
     atom   20 type  1   force =     0.05678109    0.02183877    0.01492900
     atom   21 type  1   force =    -0.00379334    0.01128044    0.02139253
     atom   22 type  1   force =    -0.01364497    0.01339109    0.04971791
     atom   23 type  3   force =     0.00811704    0.00102367   -0.17171255
     atom   24 type  3   force =    -0.00991970    0.00213356   -0.16225684
     The non-local contrib.  to forces
     atom    1 type  4   force =    -0.00465362    0.00092676    0.00280799
     atom    2 type  4   force =     0.02081712    0.00361637   -0.12759657
     atom    3 type  2   force =     0.12814873    0.00783834    0.07793488
     atom    4 type  2   force =     0.43688857    0.00405361    0.26486159
     atom    5 type  2   force =    -0.29243017    0.01755747    0.36071811
     atom    6 type  2   force =    -0.22082843   -0.00219254   -0.02607138
     atom    7 type  2   force =    -0.42040232   -0.01127519   -0.16228685
     atom    8 type  2   force =    -0.11566197    0.00293532   -0.13066182
     atom    9 type  2   force =     0.23979579    0.00722733   -0.34089049
     atom   10 type  2   force =     0.28127628   -0.01571784    0.04192836
     atom   11 type  1   force =    -0.08415665    0.00696073   -0.10300885
     atom   12 type  1   force =     0.01487802   -0.00528472    0.04020497
     atom   13 type  1   force =     0.08182187   -0.01122535   -0.17951520
     atom   14 type  1   force =     0.08951204    0.02323438   -1.12748949
     atom   15 type  1   force =    -0.00708428    0.01390994   -0.47335972
     atom   16 type  1   force =    -0.04430794    0.00937637   -0.63154573
     atom   17 type  1   force =    -0.03850977   -0.02072500    0.50959980
     atom   18 type  1   force =    -0.15990080   -0.05732108    1.76450372
     atom   19 type  1   force =     0.13169866   -0.02326266    0.81308190
     atom   20 type  1   force =    -0.05468314    0.01638413    0.35302212
     atom   21 type  1   force =    -0.06175850    0.01555765   -0.03031593
     atom   22 type  1   force =     0.10227925    0.01115877    0.05940221
     atom   23 type  3   force =    -0.04352066    0.00022533    0.23323994
     atom   24 type  3   force =     0.01554324   -0.00132255    0.08544418
     The ionic contribution  to forces
     atom    1 type  4   force =     2.65586979   -0.43028161   35.39034921
     atom    2 type  4   force =    -2.18646827   -0.61312099   37.23269917
     atom    3 type  2   force =    -0.54756199   -0.22487759  -15.44667628
     atom    4 type  2   force =    -5.32384808   -0.25303136  -15.62645876
     atom    5 type  2   force =     3.84107382   -0.32162030  -17.12030117
     atom    6 type  2   force =     1.87994320   -0.20425049  -15.49101872
     atom    7 type  2   force =     5.63507019    0.24345361   15.43347717
     atom    8 type  2   force =     0.86344688    0.21473325   15.61263807
     atom    9 type  2   force =    -2.34436123    0.17029832   17.10498586
     atom   10 type  2   force =    -4.30476651    0.27987702   15.47930692
     atom   11 type  1   force =     8.78626738   -4.00426452  -64.47143169
     atom   12 type  1   force =     6.14964658   -3.54942887  -51.89978218
     atom   13 type  1   force =    -8.99780122   -3.77854757  -50.47576286
     atom   14 type  1   force =     1.93791692    3.61797024  -46.93797319
     atom   15 type  1   force =    -4.69144085    3.60805124  -61.54005913
     atom   16 type  1   force =    -3.38398497    4.19500137  -59.91493473
     atom   17 type  1   force =    11.31319794   -3.76260652   61.34901762
     atom   18 type  1   force =     1.38374979   -3.30974652   44.20382227
     atom   19 type  1   force =   -17.30323560   -4.21195661   59.96251168
     atom   20 type  1   force =    11.22831882    4.19502507   55.17013130
     atom   21 type  1   force =    -2.20493196    3.60801378   53.29521195
     atom   22 type  1   force =    -4.40272707    3.61797869   58.72529179
     atom   23 type  3   force =     4.54013691    0.38865785  -36.56959307
     atom   24 type  3   force =    -4.52351047    0.52467253  -33.46545122
     The local contribution  to forces
     atom    1 type  4   force =    -2.62680074    0.42667065  -35.17685331
     atom    2 type  4   force =     2.14714730    0.60330587  -36.85339610
     atom    3 type  2   force =     0.44601200    0.21740734   15.41207137
     atom    4 type  2   force =     4.96195062    0.24754856   15.42712588
     atom    5 type  2   force =    -3.60121067    0.30462059   16.81856242
     atom    6 type  2   force =    -1.69522249    0.20468908   15.54757088
     atom    7 type  2   force =    -5.23262679   -0.23275370  -15.30301465
     atom    8 type  2   force =    -0.72018580   -0.21641282  -15.50450597
     atom    9 type  2   force =     2.09851848   -0.17589189  -16.80015868
     atom   10 type  2   force =     4.00864070   -0.26534306  -15.52510374
     atom   11 type  1   force =    -8.65776250    3.97413441   64.50399528
     atom   12 type  1   force =    -6.15759186    3.54156964   51.83444694
     atom   13 type  1   force =     8.89378907    3.77758663   50.62309406
     atom   14 type  1   force =    -2.03738860   -3.62597776   48.13678607
     atom   15 type  1   force =     4.70224060   -3.60869109   62.03043865
     atom   16 type  1   force =     3.39492245   -4.18345616   60.56882023
     atom   17 type  1   force =   -11.26308739    3.77252017  -61.88550097
     atom   18 type  1   force =    -1.19918049    3.35682406  -46.16503941
     atom   19 type  1   force =    17.10391539    4.21635670  -60.84456454
     atom   20 type  1   force =   -11.11876335   -4.18955522  -55.50860499
     atom   21 type  1   force =     2.26166618   -3.61245413  -53.24724536
     atom   22 type  1   force =     4.28828643   -3.61600690  -58.74038427
     atom   23 type  3   force =    -4.49310276   -0.38799510   36.17711292
     atom   24 type  3   force =     4.50131218   -0.52154774   33.22231775
     The core correction contribution to forces
     atom    1 type  4   force =     0.00083154   -0.00011800   -0.00104378
     atom    2 type  4   force =    -0.00150948   -0.00026365    0.00572837
     atom    3 type  2   force =    -0.00126462   -0.00008250   -0.00206302
     atom    4 type  2   force =    -0.00456908   -0.00003983   -0.00426629
     atom    5 type  2   force =     0.00294364   -0.00018408   -0.00488342
     atom    6 type  2   force =     0.00225275    0.00003171   -0.00093359
     atom    7 type  2   force =     0.00331902    0.00012717    0.00268496
     atom    8 type  2   force =     0.00004237   -0.00004060    0.00202286
     atom    9 type  2   force =    -0.00134529   -0.00009030    0.00413463
     atom   10 type  2   force =    -0.00180449    0.00017811    0.00023978
     atom   11 type  1   force =     0.00118288   -0.00066620   -0.00410811
     atom   12 type  1   force =    -0.00058867   -0.00048851   -0.00413537
     atom   13 type  1   force =    -0.00145690   -0.00055217   -0.00209521
     atom   14 type  1   force =    -0.00267092    0.00002344    0.01365724
     atom   15 type  1   force =    -0.00024637    0.00019086    0.00082682
     atom   16 type  1   force =     0.00199426    0.00016876    0.00621187
     atom   17 type  1   force =     0.00103795    0.00017688   -0.00181770
     atom   18 type  1   force =     0.00212762    0.00062572   -0.01770573
     atom   19 type  1   force =    -0.00345524    0.00033887   -0.00743788
     atom   20 type  1   force =     0.00120382   -0.00001342   -0.00012128
     atom   21 type  1   force =     0.00107413    0.00016753    0.00401764
     atom   22 type  1   force =    -0.00066076    0.00025468    0.00457102
     atom   23 type  3   force =     0.00423904    0.00013822   -0.01244632
     atom   24 type  3   force =    -0.00285251    0.00032658   -0.00380091
     The Hubbard contrib.    to forces
     atom    1 type  4   force =     0.00000000    0.00000000    0.00000000
     atom    2 type  4   force =     0.00000000    0.00000000    0.00000000
     atom    3 type  2   force =     0.00000000    0.00000000    0.00000000
     atom    4 type  2   force =     0.00000000    0.00000000    0.00000000
     atom    5 type  2   force =     0.00000000    0.00000000    0.00000000
     atom    6 type  2   force =     0.00000000    0.00000000    0.00000000
     atom    7 type  2   force =     0.00000000    0.00000000    0.00000000
     atom    8 type  2   force =     0.00000000    0.00000000    0.00000000
     atom    9 type  2   force =     0.00000000    0.00000000    0.00000000
     atom   10 type  2   force =     0.00000000    0.00000000    0.00000000
     atom   11 type  1   force =     0.00000000    0.00000000    0.00000000
     atom   12 type  1   force =     0.00000000    0.00000000    0.00000000
     atom   13 type  1   force =     0.00000000    0.00000000    0.00000000
     atom   14 type  1   force =     0.00000000    0.00000000    0.00000000
     atom   15 type  1   force =     0.00000000    0.00000000    0.00000000
     atom   16 type  1   force =     0.00000000    0.00000000    0.00000000
     atom   17 type  1   force =     0.00000000    0.00000000    0.00000000
     atom   18 type  1   force =     0.00000000    0.00000000    0.00000000
     atom   19 type  1   force =     0.00000000    0.00000000    0.00000000
     atom   20 type  1   force =     0.00000000    0.00000000    0.00000000
     atom   21 type  1   force =     0.00000000    0.00000000    0.00000000
     atom   22 type  1   force =     0.00000000    0.00000000    0.00000000
     atom   23 type  3   force =     0.00000000    0.00000000    0.00000000
     atom   24 type  3   force =     0.00000000    0.00000000    0.00000000
     The SCF correction term to forces
     atom    1 type  4   force =     0.00029125    0.00000159   -0.00026709
     atom    2 type  4   force =    -0.00045639    0.00000088   -0.00034598
     atom    3 type  2   force =     0.00032325    0.00000008   -0.00005935
     atom    4 type  2   force =    -0.00039757   -0.00000288   -0.00025574
     atom    5 type  2   force =    -0.00005952    0.00000238    0.00010267
     atom    6 type  2   force =     0.00011301   -0.00000044   -0.00036257
     atom    7 type  2   force =     0.00022413    0.00000111   -0.00009910
     atom    8 type  2   force =    -0.00026133   -0.00000066   -0.00012771
     atom    9 type  2   force =    -0.00001618    0.00000007   -0.00026627
     atom   10 type  2   force =     0.00004978   -0.00000263   -0.00016326
     atom   11 type  1   force =     0.00132632   -0.00002414    0.00040087
     atom   12 type  1   force =    -0.00003960    0.00002064    0.00055612
     atom   13 type  1   force =    -0.00118840   -0.00001624    0.00045197
     atom   14 type  1   force =     0.00123341    0.00000045    0.00031467
     atom   15 type  1   force =    -0.00170534    0.00000660    0.00052629
     atom   16 type  1   force =     0.00056487    0.00001366    0.00049838
     atom   17 type  1   force =     0.00105229    0.00001945   -0.00005188
     atom   18 type  1   force =    -0.00137884    0.00001670    0.00022733
     atom   19 type  1   force =     0.00036888   -0.00002022    0.00105096
     atom   20 type  1   force =     0.00071017   -0.00000120    0.00058689
     atom   21 type  1   force =     0.00016203   -0.00000380   -0.00019073
     atom   22 type  1   force =    -0.00081759    0.00000644    0.00092220
     atom   23 type  3   force =     0.00036974   -0.00000204    0.00005900
     atom   24 type  3   force =    -0.00040691    0.00000533   -0.00068161

     Total force =     0.528344     Total SCF correction =     0.004236

     Computing stress (Cartesian axis) and pressure

          total   stress  (Ry/bohr**3)                   (kbar)     P=      -53.50
  -0.00008569   0.00000188  -0.00002930          -12.61        0.28       -4.31
   0.00000188  -0.00093426  -0.00001603            0.28     -137.43       -2.36
  -0.00002930  -0.00001603  -0.00007120           -4.31       -2.36      -10.47

     kinetic stress (kbar)  42881.10     -0.24     -3.30
                               -0.24  42756.21     -8.86
                               -3.30     -8.86  42572.07

     local   stress (kbar) -86465.20      8.21   -136.79
                                8.21 -94788.31    -52.27
                             -136.79    -52.27  80344.03

     nonloc. stress (kbar)  18647.25     -1.50     11.44
                               -1.50  18643.17      2.41
                               11.44      2.41  18567.93

     hartree stress (kbar)  81217.62     -3.82    101.45
                               -3.82  84451.79     70.40
                              101.45     70.40  -1858.61

     exc-cor stress (kbar) -10214.70      0.01     -0.38
                                0.01 -10211.03     -0.16
                               -0.38     -0.16 -10209.76

     corecor stress (kbar)  -3598.44      0.01     -0.03
                                0.01  -3598.00     -0.00
                               -0.03     -0.00  -3597.33

     ewald   stress (kbar) -42480.23     -2.39     23.30
                               -2.39 -37391.27    -13.88
                               23.30    -13.88-125828.80

     hubbard stress (kbar)      0.00      0.00      0.00
                                0.00      0.00      0.00
                                0.00      0.00      0.00

     london  stress (kbar)      0.00      0.00      0.00
                                0.00      0.00      0.00
                                0.00      0.00      0.00

     DFT-D3  stress (kbar)      0.00      0.00      0.00
                                0.00      0.00      0.00
                                0.00      0.00      0.00

     XDM     stress (kbar)      0.00      0.00      0.00
                                0.00      0.00      0.00
                                0.00      0.00      0.00

     dft-nl  stress (kbar)      0.00      0.00      0.00
                                0.00      0.00      0.00
                                0.00      0.00      0.00

     TS-vdW  stress (kbar)      0.00      0.00      0.00
                                0.00      0.00      0.00
                                0.00      0.00      0.00

     Writing output data file /tmp//Ti_Ni(100)_ZrO2(110)+vacuum.save/

     General routines

     Parallel routines

     PAW routines

   This run was terminated on:   7:41:31  23Aug2022

   JOB DONE.