     Program PWSCF v.6.5 starts on 16Aug2022 at 12:21: 1

     R & G space division:  proc/nbgrp/npool/nimage =       8
     Waiting for input...
     Reading input from standard input

     Current dimensions of program PWSCF are:
     Max number of different atomic species (ntypx) = 10
     Max number of k-points (npk) =  40000
     Max angular momentum in pseudopotentials (lmaxx) =  3
               file O.pbesol-n-kjpaw_psl.0.1.UPF: wavefunction(s)  2P renormalized

     bravais-lattice index     =            0
     lattice parameter (alat)  =      19.1327  a.u.
     unit-cell volume          =    3321.1782 (a.u.)^3
     number of atoms/cell      =           12
     number of atomic types    =            2
     number of electrons       =        96.00
     number of Kohn-Sham states=           58
     kinetic-energy cutoff     =      50.0000  Ry
     charge density cutoff     =     400.0000  Ry
     convergence threshold     =      1.0E-06
     mixing beta               =       0.4000
     number of iterations used =            8  plain     mixing
     Exchange-correlation= SLA  PW   PSX  PSC
                           (   1   4  10   8   0   0   0)

     celldm(1)=  19.132690  celldm(2)=   0.000000  celldm(3)=   0.000000
     celldm(4)=   0.000000  celldm(5)=   0.000000  celldm(6)=   0.000000

     crystal axes: (cart. coord. in units of alat)
               a(1) = (   1.000000   0.000000   0.000000 )
               a(2) = (   0.000000   0.353553   0.000000 )
               a(3) = (   0.000000   0.000000   1.341248 )

     reciprocal axes: (cart. coord. in units 2 pi/alat)
               b(1) = (  1.000000  0.000000  0.000000 )
               b(2) = (  0.000000  2.828428  0.000000 )
               b(3) = (  0.000000  0.000000  0.745574 )

     PseudoPot. # 1 for O  read from file:
     /home/zczlx99/q-e/pseudo/DFT/O.pbesol-n-kjpaw_psl.0.1.UPF
     MD5 check sum: 81d73d1479e654e5638b0319f0d6c2c7
     Pseudo is Projector augmented-wave + core cor, Zval =  6.0
     Generated using "atomic" code by A. Dal Corso v.6.0 svn rev. 13079
     Shape of augmentation charge: BESSEL
     Using radial grid of 1095 points,  4 beta functions with:
                l(1) =   0
                l(2) =   0
                l(3) =   1
                l(4) =   1
     Q(r) pseudized with 0 coefficients

     PseudoPot. # 2 for Zr read from file:
     /home/zczlx99/q-e/pseudo/DFT/zr_pbesol_v1.uspp.F.UPF
     MD5 check sum: f29f2a20533738a515abe666fee35838
     Pseudo is Ultrasoft + core correction, Zval = 12.0
     Generated by new atomic code, or converted to UPF format
     Using radial grid of  887 points,  6 beta functions with:
                l(1) =   0
                l(2) =   0
                l(3) =   1
                l(4) =   1
                l(5) =   2
                l(6) =   2
     Q(r) pseudized with  6 coefficients,  rinner =    1.200   1.200   1.200
                                                       1.200   1.200

     atomic species   valence    mass     pseudopotential
        O              6.00    15.99940     O ( 1.00)
        Zr            12.00    91.22400     Zr( 1.00)

     Starting magnetic structure
     atomic species   magnetization
        O            0.100
        Zr           0.417

     No symmetry found

                                    s                        frac. trans.

      isym =  1     identity

 cryst.   s( 1) = (     1          0          0      )
                  (     0          1          0      )
                  (     0          0          1      )

 cart.    s( 1) = (  1.0000000  0.0000000  0.0000000 )
                  (  0.0000000  1.0000000  0.0000000 )
                  (  0.0000000  0.0000000  1.0000000 )

   Cartesian axes

     site n.     atom                  positions (alat units)
         1           Zr  tau(   1) = (   0.4745900   0.5225706   1.9824361  )
         2           Zr  tau(   2) = (   5.5368810   0.5225706   1.9824361  )
         3           Zr  tau(   3) = (   3.0057360   1.1553571   4.3829902  )
         4           Zr  tau(   4) = (   8.0680270   1.1553571   4.3829902  )
         5           O   tau(   5) = (   1.7401630   0.5225706   4.3829902  )
         6           O   tau(   6) = (   6.8024540   0.5225706   4.3829902  )
         7           O   tau(   7) = (   4.2713080   0.5225706   4.3829902  )
         8           O   tau(   8) = (   9.3336000   0.5225706   4.3829902  )
         9           O   tau(   9) = (   1.7401630   1.1553571   1.9824361  )
        10           O   tau(  10) = (   6.8024540   1.1553571   1.9824361  )
        11           O   tau(  11) = (   4.2713080   1.1553571   1.9824361  )
        12           O   tau(  12) = (   9.3336000   1.1553571   1.9824361  )

   Crystallographic axes

     site n.     atom                  positions (cryst. coord.)
         1           Zr  tau(   1) = (  0.4745900  1.4780530  1.4780530  )
         2           Zr  tau(   2) = (  5.5368810  1.4780530  1.4780530  )
         3           Zr  tau(   3) = (  3.0057360  3.2678440  3.2678440  )
         4           Zr  tau(   4) = (  8.0680270  3.2678440  3.2678440  )
         5           O   tau(   5) = (  1.7401630  1.4780530  3.2678440  )
         6           O   tau(   6) = (  6.8024540  1.4780530  3.2678440  )
         7           O   tau(   7) = (  4.2713080  1.4780530  3.2678440  )
         8           O   tau(   8) = (  9.3336000  1.4780530  3.2678440  )
         9           O   tau(   9) = (  1.7401630  3.2678440  1.4780530  )
        10           O   tau(  10) = (  6.8024540  3.2678440  1.4780530  )
        11           O   tau(  11) = (  4.2713080  3.2678440  1.4780530  )
        12           O   tau(  12) = (  9.3336000  3.2678440  1.4780530  )

     number of k points=    36  Marzari-Vanderbilt smearing, width (Ry)=  0.0147
                       cart. coord. in units 2pi/alat
        k(    1) = (   0.0000000   0.0000000   0.0000000), wk =   0.0156250
        k(    2) = (   0.0000000   0.0000000   0.1863935), wk =   0.0312500
        k(    3) = (   0.0000000   0.0000000  -0.3727871), wk =   0.0156250
        k(    4) = (   0.0000000   0.7071069   0.0000000), wk =   0.0312500
        k(    5) = (   0.0000000   0.7071069   0.1863935), wk =   0.0312500
        k(    6) = (   0.0000000   0.7071069  -0.3727871), wk =   0.0312500
        k(    7) = (   0.0000000  -1.4142138   0.0000000), wk =   0.0156250
        k(    8) = (   0.0000000  -1.4142138   0.1863935), wk =   0.0312500
        k(    9) = (   0.0000000  -1.4142138  -0.3727871), wk =   0.0156250
        k(   10) = (   0.2500000   0.0000000   0.0000000), wk =   0.0312500
        k(   11) = (   0.2500000   0.0000000   0.1863935), wk =   0.0312500
        k(   12) = (   0.2500000   0.0000000  -0.3727871), wk =   0.0312500
        k(   13) = (   0.2500000   0.7071069   0.0000000), wk =   0.0312500
        k(   14) = (   0.2500000   0.7071069   0.1863935), wk =   0.0312500
        k(   15) = (   0.2500000   0.7071069  -0.3727871), wk =   0.0312500
        k(   16) = (   0.2500000  -1.4142138   0.0000000), wk =   0.0312500
        k(   17) = (   0.2500000  -1.4142138   0.1863935), wk =   0.0312500
        k(   18) = (   0.2500000  -1.4142138  -0.3727871), wk =   0.0312500
        k(   19) = (  -0.5000000   0.0000000   0.0000000), wk =   0.0156250
        k(   20) = (  -0.5000000   0.0000000   0.1863935), wk =   0.0312500
        k(   21) = (  -0.5000000   0.0000000  -0.3727871), wk =   0.0156250
        k(   22) = (  -0.5000000   0.7071069   0.0000000), wk =   0.0312500
        k(   23) = (  -0.5000000   0.7071069   0.1863935), wk =   0.0312500
        k(   24) = (  -0.5000000   0.7071069  -0.3727871), wk =   0.0312500
        k(   25) = (  -0.5000000  -1.4142138   0.0000000), wk =   0.0156250
        k(   26) = (  -0.5000000  -1.4142138   0.1863935), wk =   0.0312500
        k(   27) = (  -0.5000000  -1.4142138  -0.3727871), wk =   0.0156250
        k(   28) = (   0.0000000  -0.7071069   0.1863935), wk =   0.0312500
        k(   29) = (  -0.2500000   0.0000000   0.1863935), wk =   0.0312500
        k(   30) = (  -0.2500000   0.7071069   0.0000000), wk =   0.0312500
        k(   31) = (  -0.2500000  -0.7071069   0.1863935), wk =   0.0312500
        k(   32) = (  -0.2500000   0.7071069  -0.1863935), wk =   0.0312500
        k(   33) = (   0.2500000  -0.7071069  -0.1863935), wk =   0.0312500
        k(   34) = (  -0.2500000   0.7071069   0.3727871), wk =   0.0312500
        k(   35) = (  -0.2500000   1.4142138   0.1863935), wk =   0.0312500
        k(   36) = (   0.5000000  -0.7071069   0.1863935), wk =   0.0312500

                       cryst. coord.
        k(    1) = (   0.0000000   0.0000000   0.0000000), wk =   0.0156250
        k(    2) = (   0.0000000   0.0000000   0.2500000), wk =   0.0312500
        k(    3) = (   0.0000000   0.0000000  -0.5000000), wk =   0.0156250
        k(    4) = (   0.0000000   0.2500000   0.0000000), wk =   0.0312500
        k(    5) = (   0.0000000   0.2500000   0.2500000), wk =   0.0312500
        k(    6) = (   0.0000000   0.2500000  -0.5000000), wk =   0.0312500
        k(    7) = (   0.0000000  -0.5000000   0.0000000), wk =   0.0156250
        k(    8) = (   0.0000000  -0.5000000   0.2500000), wk =   0.0312500
        k(    9) = (   0.0000000  -0.5000000  -0.5000000), wk =   0.0156250
        k(   10) = (   0.2500000   0.0000000   0.0000000), wk =   0.0312500
        k(   11) = (   0.2500000   0.0000000   0.2500000), wk =   0.0312500
        k(   12) = (   0.2500000   0.0000000  -0.5000000), wk =   0.0312500
        k(   13) = (   0.2500000   0.2500000   0.0000000), wk =   0.0312500
        k(   14) = (   0.2500000   0.2500000   0.2500000), wk =   0.0312500
        k(   15) = (   0.2500000   0.2500000  -0.5000000), wk =   0.0312500
        k(   16) = (   0.2500000  -0.5000000   0.0000000), wk =   0.0312500
        k(   17) = (   0.2500000  -0.5000000   0.2500000), wk =   0.0312500
        k(   18) = (   0.2500000  -0.5000000  -0.5000000), wk =   0.0312500
        k(   19) = (  -0.5000000   0.0000000   0.0000000), wk =   0.0156250
        k(   20) = (  -0.5000000   0.0000000   0.2500000), wk =   0.0312500
        k(   21) = (  -0.5000000   0.0000000  -0.5000000), wk =   0.0156250
        k(   22) = (  -0.5000000   0.2500000   0.0000000), wk =   0.0312500
        k(   23) = (  -0.5000000   0.2500000   0.2500000), wk =   0.0312500
        k(   24) = (  -0.5000000   0.2500000  -0.5000000), wk =   0.0312500
        k(   25) = (  -0.5000000  -0.5000000   0.0000000), wk =   0.0156250
        k(   26) = (  -0.5000000  -0.5000000   0.2500000), wk =   0.0312500
        k(   27) = (  -0.5000000  -0.5000000  -0.5000000), wk =   0.0156250
        k(   28) = (   0.0000000  -0.2500000   0.2500000), wk =   0.0312500
        k(   29) = (  -0.2500000   0.0000000   0.2500000), wk =   0.0312500
        k(   30) = (  -0.2500000   0.2500000   0.0000000), wk =   0.0312500
        k(   31) = (  -0.2500000  -0.2500000   0.2500000), wk =   0.0312500
        k(   32) = (  -0.2500000   0.2500000  -0.2500000), wk =   0.0312500
        k(   33) = (   0.2500000  -0.2500000  -0.2500000), wk =   0.0312500
        k(   34) = (  -0.2500000   0.2500000   0.5000000), wk =   0.0312500
        k(   35) = (  -0.2500000   0.5000000   0.2500000), wk =   0.0312500
        k(   36) = (   0.5000000  -0.2500000   0.2500000), wk =   0.0312500

     Check: negative core charge=   -0.000001

     Initial potential from superposition of free atoms

     starting charge   95.99210, renormalised to   96.00000
     Starting wfcs are   84 randomized atomic wfcs
     Checking if some PAW data can be deallocated...

     Self-consistent Calculation

     iteration #  1     ecut=    50.00 Ry     beta= 0.40
     Davidson diagonalization with overlap
     ethr =  1.00E-02,  avg # of iterations =  4.6

     total energy              =    -544.40747767 Ry
     Harris-Foulkes estimate   =    -582.22097943 Ry
     estimated scf accuracy    <      64.66748764 Ry

     total magnetization       =     4.00 Bohr mag/cell
     absolute magnetization    =     4.23 Bohr mag/cell

[...]

     iteration # 16     ecut=    50.00 Ry     beta= 0.40
     Davidson diagonalization with overlap
     c_bands:  1 eigenvalues not converged
     ethr =  7.64E-07,  avg # of iterations =  3.9

[...]

     total energy              =    -563.16244748 Ry
     Harris-Foulkes estimate   =    -563.16244878 Ry
     estimated scf accuracy    <       0.00000132 Ry

[...]

     iteration # 32     ecut=    50.00 Ry     beta= 0.40
     Davidson diagonalization with overlap
     ethr =  1.37E-09,  avg # of iterations =  3.5

     Magnetic moment per site:
     atom:    1    charge:    0.4259    magn:   -0.0006    constr:    0.0000
     atom:    2    charge:    0.4081    magn:   -0.0002    constr:    0.0000
     atom:    3    charge:    0.4281    magn:    0.0002    constr:    0.0000
     atom:    4    charge:    0.4277    magn:   -0.0008    constr:    0.0000
     atom:    5    charge:    0.8593    magn:    0.0033    constr:    0.0000
     atom:    6    charge:    0.8695    magn:    0.0026    constr:    0.0000
     atom:    7    charge:    0.8799    magn:    0.0417    constr:    0.0000
     atom:    8    charge:    0.8681    magn:    0.0312    constr:    0.0000
     atom:    9    charge:    0.8729    magn:    0.0379    constr:    0.0000
     atom:   10    charge:    0.8722    magn:    0.0263    constr:    0.0000
     atom:   11    charge:    0.8888    magn:   -0.0003    constr:    0.0000
     atom:   12    charge:    0.8742    magn:   -0.0005    constr:    0.0000

     End of self-consistent calculation

 ------ SPIN UP ------------

          k = 0.0000 0.0000 0.0000 ( 19909 PWs)   bands (ev):

   -54.0071 -52.7613 -51.6318 -51.6203 -51.5427 -51.5291 -51.4702 -51.3469
   -50.3724 -50.3405 -47.8587 -46.4020 -28.2275 -27.8406 -27.7856 -27.7522
   -27.6857 -27.6749 -27.6135 -27.5598 -24.6762 -20.7761 -18.5277 -17.9035
   -17.2670 -16.9376 -16.0220 -15.8200 -15.3180 -15.0945 -13.4274 -11.9534
   -11.7739 -11.7168 -10.4613 -10.1747  -9.3198  -8.9629  -3.6550  -3.1769
    -2.4704  -1.8537  -1.5713  -0.4888   0.9850   1.5821   1.6741   1.8182
     2.1555   2.3747   2.4563   2.5947   2.7306   2.9360   2.9766   3.2709
     3.4479   3.6672

     occupation numbers
     1.0000   1.0000   1.0000   1.0000   1.0000   1.0000   1.0000   1.0000
     1.0000   1.0000   1.0000   1.0000   1.0000   1.0000   1.0000   1.0000
     1.0000   1.0000   1.0000   1.0000   1.0000   1.0000   1.0000   1.0000
     1.0000   1.0000   1.0000   1.0000   1.0000   1.0000   1.0000   1.0000
     1.0000   1.0000   1.0000   1.0000   1.0000   1.0000   1.0000   1.0000
     1.0000   1.0000   1.0000   1.0000   1.0000   1.0019   1.0112   1.0637
     0.4502   0.0270   0.0053   0.0002   0.0000   0.0000   0.0000   0.0000
     0.0000   0.0000

[...]

          k =-0.5000 0.0000 0.0000 ( 19840 PWs)   bands (ev):

[...]

 ------ SPIN DOWN ----------

[...]

          k =-0.2500 1.4142 0.1864 ( 19794 PWs)   bands (ev):

[...]

          k = 0.5000-0.7071 0.1864 ( 19842 PWs)   bands (ev):

   -54.0060 -52.7739 -51.6060 -51.5553 -51.4696 -51.3502 -51.3142 -51.2646
   -50.3951 -50.3536 -47.8610 -46.4158 -28.2324 -27.6736 -27.6612 -27.5642
   -27.2124 -27.1866 -27.1478 -27.1177 -24.6600 -20.7147 -18.2776 -17.5846
   -16.8759 -16.5748 -15.7704 -15.6444 -14.9537 -14.7752 -13.4117 -11.9616
   -11.8147 -11.7671 -10.2934 -10.2474  -9.1189  -9.0927  -3.7310  -3.2264
    -2.0477  -1.4367  -1.3065   0.0089   0.7793   1.4146   2.1220   2.2684
     2.5675   2.8474   2.9616   3.0800   3.1598   3.2590   3.4172   3.7532
     3.9056   4.3398

     occupation numbers
     1.0000   1.0000   1.0000   1.0000   1.0000   1.0000   1.0000   1.0000
     1.0000   1.0000   1.0000   1.0000   1.0000   1.0000   1.0000   1.0000
     1.0000   1.0000   1.0000   1.0000   1.0000   1.0000   1.0000   1.0000
     1.0000   1.0000   1.0000   1.0000   1.0000   1.0000   1.0000   1.0000
     1.0000   1.0000   1.0000   1.0000   1.0000   1.0000   1.0000   1.0000
     1.0000   1.0000   1.0000   1.0000   1.0000   1.0000   0.5742   0.1391
     0.0003   0.0000   0.0000   0.0000   0.0000   0.0000   0.0000   0.0000
     0.0000   0.0000

     the Fermi energy is     2.1697 ev

!    total energy              =    -563.16245000 Ry
     Harris-Foulkes estimate   =    -563.16244991 Ry
     estimated scf accuracy    <       0.00000088 Ry

     The total energy is the sum of the following terms:

     one-electron contribution =   -2345.56017091 Ry
     hartree contribution      =    1173.49489916 Ry
     xc contribution           =    -151.12416894 Ry
     ewald contribution        =     833.05942624 Ry
     one-center paw contrib.   =     -73.03116700 Ry
      -> PAW hartree energy AE =       0.00000000 Ry
      -> PAW hartree energy PS =       0.00000000 Ry
      -> PAW xc energy AE      =       0.00000000 Ry
      -> PAW xc energy PS      =       0.00000000 Ry
      -> total E_H with PAW    =    1173.49489916 Ry
      -> total E_XC with PAW   =    -151.12416894 Ry
     smearing contrib. (-TS)   =      -0.00126855 Ry

     total magnetization       =     2.15 Bohr mag/cell
     absolute magnetization    =     2.46 Bohr mag/cell

     convergence has been achieved in  32 iterations

     Forces acting on atoms (cartesian axes, Ry/au):

     atom    1 type  2   force =  -162.44634372    0.41399281    0.00161618
     atom    2 type  2   force =   163.06284841    0.06930179    0.00109268
     atom    3 type  2   force =  -162.71784482   -0.02774910    0.00412240
     atom    4 type  2   force =   162.71693396   -0.03016568    0.00130972
     atom    5 type  1   force =   -20.27587158    0.01105879   -0.00732935
     atom    6 type  1   force =    20.18205247    0.01677486   -0.00167887
     atom    7 type  1   force =   -20.18782210    0.03156644   -0.00267627
     atom    8 type  1   force =    20.28213363    0.00158847   -0.02377324
     atom    9 type  1   force =   -20.18683565   -0.04838828   -0.01174519
     atom   10 type  1   force =    20.29620843    0.01042678    0.01783615
     atom   11 type  1   force =   -20.38189377    0.17943171    0.01376068
     atom   12 type  1   force =    19.65643474   -0.62783860    0.00746511
     The non-local contrib.  to forces
     atom    1 type  2   force =   -14.81824194    0.18955208   -0.01864113
     atom    2 type  2   force =    14.25177411    0.13783082    0.01075319
     atom    3 type  2   force =   -14.29951738   -0.13375064    0.01565851
     atom    4 type  2   force =    14.29287284   -0.13349469    0.02522675
     atom    5 type  1   force =     2.13949690   -0.00224304    0.02406933
     atom    6 type  1   force =    -2.33356933   -0.07816545    0.01644992
     atom    7 type  1   force =     2.31453692   -0.03091925    0.05651327
     atom    8 type  1   force =    -2.11327887   -0.01226115   -0.08646093
     atom    9 type  1   force =     2.30480022    0.05433137   -0.11281122
     atom   10 type  1   force =    -2.12397161    0.04148081    0.08856389
     atom   11 type  1   force =     2.16089584    0.54870012    0.02808302
     atom   12 type  1   force =    -1.90497138    0.53731703   -0.03399290
     The ionic contribution  to forces
     atom    1 type  2   force =  -186.24673143    6.83988323   24.85898769
     atom    2 type  2   force =   204.41668966    3.47675638   24.05542490
     atom    3 type  2   force =  -198.17760553   -2.24607835  -22.42357369
     atom    4 type  2   force =   195.46072176   -2.25130424  -22.80251487
     atom    5 type  1   force =   -55.54447459    0.76997419  -16.85508094
     atom    6 type  1   force =    39.61796094    1.99933090  -15.12850061
     atom    7 type  1   force =   -40.33660122    1.99936544  -16.76034178
     atom    8 type  1   force =    55.46586173    0.76997369  -18.91158269
     atom    9 type  1   force =   -37.52012325   -2.00063239   15.22323347
     atom   10 type  1   force =    57.64231228   -0.76867270   16.76034808
     atom   11 type  1   force =   -63.15935981   -1.99933037   16.76037177
     atom   12 type  1   force =    28.38134946   -6.58926577   15.22322866
     The local contribution  to forces
     atom    1 type  2   force =    37.10696944   -6.60625653  -24.83880931
     atom    2 type  2   force =   -54.09719719   -3.53753503  -24.06418151
     atom    3 type  2   force =    48.24058551    2.34675079   22.41274050
     atom    4 type  2   force =   -45.52177208    2.34942579   22.77974519
     atom    5 type  1   force =    33.04736702   -0.75674353   16.82428182
     atom    6 type  1   force =   -17.02227276   -1.90543158   15.11072929
     atom    7 type  1   force =    17.75318399   -1.93739207   16.70175817
     atom    8 type  1   force =   -32.98741452   -0.75624809   18.97316047
     atom    9 type  1   force =    14.94844594    1.89873150  -15.12384744
     atom   10 type  1   force =   -35.13993942    0.73805032  -16.83035701
     atom   11 type  1   force =    40.53425041    1.63552234  -16.77413094
     atom   12 type  1   force =    -6.73977221    5.43107659  -15.18191398
     The core correction contribution to forces
     atom    1 type  2   force =     1.51269145   -0.00912267    0.00050527
     atom    2 type  2   force =    -1.50746761   -0.00775996   -0.00067886
     atom    3 type  2   force =     1.51719377    0.00537385   -0.00054032
     atom    4 type  2   force =    -1.51663344    0.00519651   -0.00103214
     atom    5 type  1   force =     0.08231526    0.00007374   -0.00054044
     atom    6 type  1   force =    -0.08039185    0.00103194   -0.00031753
     atom    7 type  1   force =     0.08044556    0.00053401   -0.00071508
     atom    8 type  1   force =    -0.08245341    0.00013349    0.00102360
     atom    9 type  1   force =     0.08036375   -0.00080759    0.00155535
     atom   10 type  1   force =    -0.08238574   -0.00042206   -0.00085003
     atom   11 type  1   force =     0.08214243   -0.00548862   -0.00023043
     atom   12 type  1   force =    -0.07977088   -0.00700582    0.00047803
     The Hubbard contrib.    to forces
     atom    1 type  2   force =     0.00000000    0.00000000    0.00000000
     atom    2 type  2   force =     0.00000000    0.00000000    0.00000000
     atom    3 type  2   force =     0.00000000    0.00000000    0.00000000
     atom    4 type  2   force =     0.00000000    0.00000000    0.00000000
     atom    5 type  1   force =     0.00000000    0.00000000    0.00000000
     atom    6 type  1   force =     0.00000000    0.00000000    0.00000000
     atom    7 type  1   force =     0.00000000    0.00000000    0.00000000
     atom    8 type  1   force =     0.00000000    0.00000000    0.00000000
     atom    9 type  1   force =     0.00000000    0.00000000    0.00000000
     atom   10 type  1   force =     0.00000000    0.00000000    0.00000000
     atom   11 type  1   force =     0.00000000    0.00000000    0.00000000
     atom   12 type  1   force =     0.00000000    0.00000000    0.00000000
     The SCF correction term to forces
     atom    1 type  2   force =    -0.00103710   -0.00005774   -0.00042528
     atom    2 type  2   force =    -0.00095640    0.00001512   -0.00022397
     atom    3 type  2   force =     0.00149297   -0.00003922   -0.00016154
     atom    4 type  2   force =     0.00173903    0.00001649   -0.00011416
     atom    5 type  1   force =    -0.00058202    0.00000297   -0.00005805
     atom    6 type  1   force =     0.00031961    0.00001460   -0.00003888
     atom    7 type  1   force =     0.00060681   -0.00001615    0.00011021
     atom    8 type  1   force =    -0.00058715   -0.00000392    0.00008738
     atom    9 type  1   force =    -0.00032817   -0.00000562    0.00012573
     atom   10 type  1   force =     0.00018707   -0.00000404    0.00013229
     atom   11 type  1   force =     0.00017151    0.00003379   -0.00033167
     atom   12 type  1   force =    -0.00040609    0.00004493   -0.00033363

     Total force =   330.441213     Total SCF correction =     0.003048

     Computing stress (Cartesian axis) and pressure

          total   stress  (Ry/bohr**3)                   (kbar)     P=     7221.04
   0.14690704   0.00026375   0.00000064        21610.77       38.80        0.09
   0.00026375   0.00035891  -0.00000503           38.80       52.80       -0.74
   0.00000064  -0.00000503  -0.00000305            0.09       -0.74       -0.45

     kinetic stress (kbar)   9528.40    -15.19     -2.11
                              -15.19   8493.49      6.45
                               -2.11      6.45   8495.73

     local   stress (kbar) -89415.41   -945.58  -1497.58
                             -945.58 -78041.00    398.09
                            -1497.58    398.09  62550.08

     nonloc. stress (kbar)   5398.85     -6.37     -0.71
                               -6.37   5890.51      2.28
                               -0.71      2.28   5890.37

     hartree stress (kbar)  40632.13    294.59    687.63
                              294.59  39640.71   -158.74
                              687.63   -158.74 -28295.19

     exc-cor stress (kbar)   -543.27      0.33      0.04
                                0.33   -561.65      0.00
                                0.04      0.00   -563.44

     corecor stress (kbar)  -1491.29     -0.31      0.02
                               -0.31  -1422.31     -0.04
                                0.02     -0.04  -1422.30

     ewald   stress (kbar)  57501.36    711.33    812.81
                              711.33  26053.06   -248.79
                              812.81   -248.79 -46655.69

     hubbard stress (kbar)      0.00      0.00      0.00
                                0.00      0.00      0.00
                                0.00      0.00      0.00

     london  stress (kbar)      0.00      0.00      0.00
                                0.00      0.00      0.00
                                0.00      0.00      0.00

     DFT-D3  stress (kbar)      0.00      0.00      0.00
                                0.00      0.00      0.00
                                0.00      0.00      0.00

     XDM     stress (kbar)      0.00      0.00      0.00
                                0.00      0.00      0.00
                                0.00      0.00      0.00

     dft-nl  stress (kbar)      0.00      0.00      0.00
                                0.00      0.00      0.00
                                0.00      0.00      0.00

     TS-vdW  stress (kbar)      0.00      0.00      0.00
                                0.00      0.00      0.00
                                0.00      0.00      0.00

     Writing output data file /tmp//ZrO2_110_scf_4+vacuum.save/

     General routines

     Parallel routines

     PAW routines

   This run was terminated on:  14:34:46  16Aug2022

   JOB DONE.