     Program PWSCF v.6.5 starts on  2Aug2022 at 16:26: 5

     R & G space division:  proc/nbgrp/npool/nimage =       8
     Waiting for input...
     Reading input from standard input

     Current dimensions of program PWSCF are:
     Max number of different atomic species (ntypx) = 10
     Max number of k-points (npk) =  40000
     Max angular momentum in pseudopotentials (lmaxx) =  3

     bravais-lattice index     =            0
     lattice parameter (alat)  =      13.7761  a.u.
     unit-cell volume          =    4961.7944 (a.u.)^3
     number of atoms/cell      =           27
     number of atomic types    =            1
     number of electrons       =       486.00
     number of Kohn-Sham states=          292
     kinetic-energy cutoff     =      45.0000  Ry
     charge density cutoff     =     360.0000  Ry
     convergence threshold     =      5.4E-09
     mixing beta               =       0.4000
     number of iterations used =            8  plain     mixing
     Exchange-correlation= SLA  PW   PSX  PSC
                           (   1   4  10   8   0   0   0)

     celldm(1)=  13.776104  celldm(2)=   0.000000  celldm(3)=   0.000000
     celldm(4)=   0.000000  celldm(5)=   0.000000  celldm(6)=   0.000000

     crystal axes: (cart. coord. in units of alat)
               a(1) = (   1.000000   0.000000   0.000000 )
               a(2) = (   0.500000   0.866025   0.000000 )
               a(3) = (   0.000000   0.000000   2.191437 )

     reciprocal axes: (cart. coord. in units 2 pi/alat)
               b(1) = (  1.000000 -0.577350  0.000000 )
               b(2) = (  0.000000  1.154701  0.000000 )
               b(3) = (  0.000000  0.000000  0.456322 )

     PseudoPot. # 1 for Ni read from file:
     /home/zczlx99/q-e/pseudo/ni_pbesol_v1.4.uspp.F.UPF
     MD5 check sum: de937c0c8ae4b350e69c02b76d8a83cb
     Pseudo is Ultrasoft + core correction, Zval = 18.0
     Generated by new atomic code, or converted to UPF format
     Using radial grid of  865 points,  6 beta functions with:
                l(1) =   0
                l(2) =   0
                l(3) =   1
                l(4) =   1
                l(5) =   2
                l(6) =   2
     Q(r) pseudized with 10 coefficients,  rinner =    0.980   0.980   0.980
                                                       0.980   0.980

     atomic species   valence    mass     pseudopotential
        Ni            18.00    58.69340     Ni( 1.00)

     Starting magnetic structure
     atomic species   magnetization
        Ni           0.278

     No symmetry found

                                    s                        frac. trans.

      isym =  1     identity

 cryst.   s( 1) = (     1          0          0      )
                  (     0          1          0      )
                  (     0          0          1      )

 cart.    s( 1) = (  1.0000000  0.0000000  0.0000000 )
                  (  0.0000000  1.0000000  0.0000000 )
                  (  0.0000000  0.0000000  1.0000000 )

   Cartesian axes

     site n.     atom                  positions (alat units)
         1           Ni  tau(   1) = (   6.9631670   3.6592778   0.0000000  )
         2           Ni  tau(   2) = (  14.0916625   5.4674998   0.0000000  )
         3           Ni  tau(   3) = (   9.4026850   3.6592778   0.0000000  )
         4           Ni  tau(   4) = (   9.2411805   5.4674998   0.0000000  )
         5           Ni  tau(   5) = (  11.8422030   3.6592778   0.0000000  )
         6           Ni  tau(   6) = (  11.6806995   5.4674998   0.0000000  )
         7           Ni  tau(   7) = (   7.9942285   1.2197595   4.3650308  )
         8           Ni  tau(   8) = (   3.1437465   1.2197595   4.3650308  )
         9           Ni  tau(   9) = (   5.5832655   1.2197595   4.3650308  )
        10           Ni  tau(  10) = (   6.2589385   2.4395182   8.7300617  )
        11           Ni  tau(  11) = (   8.6984565   2.4395182   8.7300617  )
        12           Ni  tau(  12) = (   3.8479745   2.4395182   8.7300617  )
        13           Ni  tau(  13) = (  12.5197895   4.8576205   4.3650308  )
        14           Ni  tau(  14) = (   7.8308120   3.0493984   4.3650308  )
        15           Ni  tau(  15) = (   7.6693075   4.8576205   4.3650308  )
        16           Ni  tau(  16) = (  10.2703300   3.0493984   4.3650308  )
        17           Ni  tau(  17) = (  10.1088255   4.8576205   4.3650308  )
        18           Ni  tau(  18) = (   5.4198480   3.0493984   4.3650308  )
        19           Ni  tau(  19) = (   6.4223550   0.6098793   8.7300617  )
        20           Ni  tau(  20) = (   8.5350400   4.2691571   8.7300617  )
        21           Ni  tau(  21) = (   1.5718730   0.6098793   8.7300617  )
        22           Ni  tau(  22) = (  10.9745580   4.2691571   8.7300617  )
        23           Ni  tau(  23) = (   4.0113910   0.6098793   8.7300617  )
        24           Ni  tau(  24) = (   6.1240760   4.2691571   8.7300617  )
        25           Ni  tau(  25) = (   7.1265835   1.8296389   0.0000000  )
        26           Ni  tau(  26) = (   9.5661015   1.8296389   0.0000000  )
        27           Ni  tau(  27) = (   4.7156195   1.8296389   0.0000000  )

   Crystallographic axes

     site n.     atom                  positions (cryst. coord.)
         1           Ni  tau(   1) = (  4.8504820  4.2253700  0.0000000  )
         2           Ni  tau(   2) = ( 10.9350000  6.3133250  0.0000000  )
         3           Ni  tau(   3) = (  7.2900000  4.2253700  0.0000000  )
         4           Ni  tau(   4) = (  6.0845180  6.3133250  0.0000000  )
         5           Ni  tau(   5) = (  9.7295180  4.2253700  0.0000000  )
         6           Ni  tau(   6) = (  8.5240370  6.3133250  0.0000000  )
         7           Ni  tau(   7) = (  7.2900000  1.4084570  1.9918580  )
         8           Ni  tau(   8) = (  2.4395180  1.4084570  1.9918580  )
         9           Ni  tau(   9) = (  4.8790370  1.4084570  1.9918580  )
        10           Ni  tau(  10) = (  4.8504820  2.8169130  3.9837160  )
        11           Ni  tau(  11) = (  7.2900000  2.8169130  3.9837160  )
        12           Ni  tau(  12) = (  2.4395180  2.8169130  3.9837160  )
        13           Ni  tau(  13) = (  9.7152410  5.6090970  1.9918580  )
        14           Ni  tau(  14) = (  6.0702410  3.5211420  1.9918580  )
        15           Ni  tau(  15) = (  4.8647590  5.6090970  1.9918580  )
        16           Ni  tau(  16) = (  8.5097590  3.5211420  1.9918580  )
        17           Ni  tau(  17) = (  7.3042770  5.6090970  1.9918580  )
        18           Ni  tau(  18) = (  3.6592770  3.5211420  1.9918580  )
        19           Ni  tau(  19) = (  6.0702410  0.7042280  3.9837160  )
        20           Ni  tau(  20) = (  6.0702410  4.9295980  3.9837160  )
        21           Ni  tau(  21) = (  1.2197590  0.7042280  3.9837160  )
        22           Ni  tau(  22) = (  8.5097590  4.9295980  3.9837160  )
        23           Ni  tau(  23) = (  3.6592770  0.7042280  3.9837160  )
        24           Ni  tau(  24) = (  3.6592770  4.9295980  3.9837160  )
        25           Ni  tau(  25) = (  6.0702410  2.1126850  0.0000000  )
        26           Ni  tau(  26) = (  8.5097590  2.1126850  0.0000000  )
        27           Ni  tau(  27) = (  3.6592770  2.1126850  0.0000000  )

     number of k points=     8  Marzari-Vanderbilt smearing, width (Ry)=  0.0147
                       cart. coord. in units 2pi/alat
        k(    1) = (   0.0000000   0.0000000   0.0000000), wk =   0.1250000
        k(    2) = (   0.0000000   0.0000000  -0.2281608), wk =   0.1250000
        k(    3) = (   0.0000000  -0.5773503   0.0000000), wk =   0.1250000
        k(    4) = (   0.0000000  -0.5773503  -0.2281608), wk =   0.1250000
        k(    5) = (   0.5000000  -0.2886751   0.0000000), wk =   0.1250000
        k(    6) = (  -0.5000000  -0.2886751   0.0000000), wk =   0.1250000
        k(    7) = (   0.5000000  -0.2886751  -0.2281608), wk =   0.1250000
        k(    8) = (  -0.5000000  -0.2886751  -0.2281608), wk =   0.1250000

                       cryst. coord.
        k(    1) = (   0.0000000   0.0000000   0.0000000), wk =   0.1250000
        k(    2) = (   0.0000000   0.0000000  -0.5000000), wk =   0.1250000
        k(    3) = (   0.0000000  -0.5000000   0.0000000), wk =   0.1250000
        k(    4) = (   0.0000000  -0.5000000  -0.5000000), wk =   0.1250000
        k(    5) = (   0.5000000   0.0000000   0.0000000), wk =   0.1250000
        k(    6) = (  -0.5000000  -0.5000000   0.0000000), wk =   0.1250000
        k(    7) = (   0.5000000   0.0000000  -0.5000000), wk =   0.1250000
        k(    8) = (  -0.5000000  -0.5000000  -0.5000000), wk =   0.1250000

     Check: negative core charge=   -0.000002

     Initial potential from superposition of free atoms

     starting charge  432.00000, renormalised to  486.00000
     Starting wfcs are  351 randomized atomic wfcs

     Self-consistent Calculation

     iteration #  1     ecut=    45.00 Ry     beta= 0.40
     Davidson diagonalization with overlap
     ethr =  1.00E-02,  avg # of iterations =  7.1

     total energy              =   -4425.33520692 Ry
     Harris-Foulkes estimate   =   -9240.52550011 Ry
     estimated scf accuracy    <    7743.94300297 Ry

     total magnetization       =    15.37 Bohr mag/cell
     absolute magnetization    =    16.07 Bohr mag/cell

[...]

     total energy              =   -8937.49106368 Ry
     Harris-Foulkes estimate   =   -8937.49106368 Ry
     estimated scf accuracy    <       0.00000001 Ry

[...]

     iteration # 46     ecut=    45.00 Ry     beta= 0.40
     Davidson diagonalization with overlap
     ethr =  1.52E-12,  avg # of iterations =  2.0

     Magnetic moment per site:
     atom:    1    charge:    3.9341    magn:   -0.0000    constr:    0.0000
     atom:    2    charge:    4.5529    magn:    0.0000    constr:    0.0000
     atom:    3    charge:    3.5773    magn:    0.0000    constr:    0.0000
     atom:    4    charge:    3.7019    magn:    0.0000    constr:    0.0000
     atom:    5    charge:    3.8944    magn:   -0.0000    constr:    0.0000
     atom:    6    charge:    4.2749    magn:    0.0000    constr:    0.0000
     atom:    7    charge:    3.6391    magn:    0.0000    constr:    0.0000
     atom:    8    charge:    4.3711    magn:    0.0000    constr:    0.0000
     atom:    9    charge:    4.3678    magn:    0.0000    constr:    0.0000
     atom:   10    charge:    3.5868    magn:    0.0000    constr:    0.0000
     atom:   11    charge:    3.7095    magn:   -0.0000    constr:    0.0000
     atom:   12    charge:    3.6971    magn:   -0.0000    constr:    0.0000
     atom:   13    charge:    4.6493    magn:   -0.0000    constr:    0.0000
     atom:   14    charge:    3.5625    magn:    0.0000    constr:    0.0000
     atom:   15    charge:    3.6857    magn:    0.0000    constr:    0.0000
     atom:   16    charge:    3.6920    magn:   -0.0000    constr:    0.0000
     atom:   17    charge:    4.2399    magn:   -0.0000    constr:    0.0000
     atom:   18    charge:    3.8630    magn:   -0.0000    constr:    0.0000
     atom:   19    charge:    3.6773    magn:    0.0000    constr:    0.0000
[...]
     atom   10 type  1   force =     3.51332101   -0.22745728   -0.25893655
     atom   11 type  1   force =    -1.99386303    4.34082173   -0.20996931
     atom   12 type  1   force =     2.51865435   -1.87279483   -0.10600849
     atom   13 type  1   force =    29.37769875 -162.08639646   39.16889015
     atom   14 type  1   force =     0.53625996   -1.46538296    0.15255787
     atom   15 type  1   force =     9.72820584    0.69744628    0.48771231
     atom   16 type  1   force =    -0.90886091    3.41548846   -0.07283841
     atom   17 type  1   force =    50.41590689 -114.58664549   26.00922120
     atom   18 type  1   force =   -14.68398910  -16.77437945    0.15853005
     atom   19 type  1   force =    -8.21339266    1.89075221   -0.49608461
     atom   20 type  1   force =    -3.58098149    1.07325550   -0.64437159
     atom   21 type  1   force =   -48.36438725  113.36302222  -25.77141493
     atom   22 type  1   force =    -6.80627198    3.36324046   -0.67749190
     atom   23 type  1   force =   -18.01741534  180.98981028  -39.71638535
     atom   24 type  1   force =     6.51575995   -2.34593585   -1.54965477
     atom   25 type  1   force =     3.57071974   -3.46653744    0.64481008
     atom   26 type  1   force =    -9.27533056    3.60886551    1.58133864
     atom   27 type  1   force =     7.25424488   -5.14220697    0.71018273
     The non-local contrib.  to forces
     atom    1 type  1   force =    -2.99210855    4.02212335   -0.27377228
     atom    2 type  1   force =    -3.49816809   27.81537919   -7.35243993
     atom    3 type  1   force =     0.42432969    2.31600432   -0.37144616
     atom    4 type  1   force =    -5.82474463    1.91302185   -0.76019259
     atom    5 type  1   force =     3.11844407   -1.31600986    0.01019233
     atom    6 type  1   force =    -9.36928718   22.18717665   -6.02639696
     atom    7 type  1   force =     4.00844194   -0.38419181    0.52464259
     atom    8 type  1   force =     9.82796319  -21.04679146    5.90416314
     atom    9 type  1   force =     2.28346565  -29.10602482    7.69098786
     atom   10 type  1   force =    -2.45688146   -0.10136134    0.23394418
     atom   11 type  1   force =     0.74637200   -4.03060933    0.31925714
     atom   12 type  1   force =    -0.00391685    1.08512328    0.11625436
     atom   13 type  1   force =    -5.86286549   26.67385231   -7.53716257
     atom   14 type  1   force =    -0.33036390    0.59361320   -0.13094221
     atom   15 type  1   force =    -5.58523773    0.34381140   -0.70989014
     atom   16 type  1   force =    -0.25460515   -3.30736741    0.22769547
     atom   17 type  1   force =    -9.88552361   22.10162294   -6.01421414
     atom   18 type  1   force =     2.90132213    5.15100968   -0.15943522
     atom   19 type  1   force =     3.61484511   -1.72960215    0.50411398
     atom   20 type  1   force =     2.91672145   -2.35241140    0.56390610
     atom   21 type  1   force =     9.80189162  -22.54781495    5.72467888
     atom   22 type  1   force =     3.39731051   -2.91911327    0.46766647
     atom   23 type  1   force =     2.75740843  -32.75747442    7.88958734
     atom   24 type  1   force =    -2.89404195    2.17556161    1.31533662
     atom   25 type  1   force =    -3.04750318    3.67134787   -0.45108221
     atom   26 type  1   force =     4.72109293   -2.68890758   -1.39980749
     atom   27 type  1   force =    -3.00732389    3.84266158   -0.51317544
     The ionic contribution  to forces
     atom    1 type  1   force =    42.62165828 -146.39972230   48.75687892
     atom    2 type  1   force =    60.84006990 -401.18757450  142.75447748
     atom    3 type  1   force =   -52.01605307  -96.25356996   53.31335807
     atom    4 type  1   force =   151.72837143  -73.63429057   56.10196493
     atom    5 type  1   force =   -57.46985396  -65.74637976   45.92934059
     atom    6 type  1   force =   107.57551958 -304.11227288  129.40042032
     atom    7 type  1   force =  -136.16830989  -18.32908429  -16.13819445
     atom    8 type  1   force =  -122.14873528  216.74714570  -83.09865608
     atom    9 type  1   force =    -8.29758968  345.48959545 -118.02612776
     atom   10 type  1   force =    92.68947794   50.01782224  -51.08918242
     atom   11 type  1   force =    19.10939467  140.50284148  -47.48261483
     atom   12 type  1   force =   -37.73551064   69.33992982  -45.25043891
     atom   13 type  1   force =    73.15810573 -253.78935232  103.30167523
     atom   14 type  1   force =    18.23819361   -8.55555050    3.02680877
     atom   15 type  1   force =   166.28225370   43.56506961   16.69092264
     atom   16 type  1   force =    28.01281873   61.18417211   -1.32525587
     atom   17 type  1   force =    95.81730638 -223.77446370   90.63505127
     atom   18 type  1   force =  -125.86433892 -104.47012579    2.99735809
     atom   19 type  1   force =  -107.24499136   75.91913583  -54.55343230
     atom   20 type  1   force =   -71.30767815   67.87317092  -60.24209003
     atom   21 type  1   force =  -133.43487271  318.54093460 -120.00501586
     atom   22 type  1   force =  -113.72288958   93.29435749  -61.31195313
     atom   23 type  1   force =   -38.77040555  477.29593784 -157.51436812
     atom   24 type  1   force =    83.00299994  -18.41658997  -78.61831019
     atom   25 type  1   force =    87.11927164 -136.04173465   59.56922990
     atom   26 type  1   force =  -122.96077455   15.50314181   79.74542713
     atom   27 type  1   force =   100.94656181 -124.56254371   62.43272663
     The local contribution  to forces
     atom    1 type  1   force =   -15.29115201  137.48259262  -48.24181541
     atom    2 type  1   force =   -40.74179798  199.03216020  -95.99185094
     atom    3 type  1   force =    50.98289737   90.63381329  -52.54361696
     atom    4 type  1   force =  -136.29829419   70.94081473  -54.78617750
     atom    5 type  1   force =    27.34173869   68.45931541  -45.84631717
     atom    6 type  1   force =   -47.67996080  167.40276210  -97.46547281
     atom    7 type  1   force =   123.56316667   19.56424854   15.16587299
     atom    8 type  1   force =    64.49906147  -84.20427675   51.47477136
     atom    9 type  1   force =   -12.61792132 -137.05534983   70.48941834
     atom   10 type  1   force =   -86.70424108  -50.15045646   50.59551870
     atom   11 type  1   force =   -21.86076800 -132.11388677   46.95321762
     atom   12 type  1   force =    40.27729224  -72.31178626   45.02802056
     atom   13 type  1   force =   -37.86369211   64.95981280  -56.56647049
     atom   14 type  1   force =   -17.36960321    6.48528315   -2.74265047
     atom   15 type  1   force =  -150.91884973  -43.20324867  -15.49331141
     atom   16 type  1   force =   -28.67400105  -54.45082706    1.02499567
     atom   17 type  1   force =   -35.47959013   86.99320568  -58.58867173
     atom   18 type  1   force =   108.23574520   82.47817877   -2.67560771
     atom   19 type  1   force =    95.37708768  -72.29523275   53.55117424
     atom   20 type  1   force =    64.79946222  -64.45077956   59.03231755
     atom   21 type  1   force =    75.24503760 -182.54723194   88.48567421
     atom   22 type  1   force =   103.49113210  -86.99575212   60.16398913
     atom   23 type  1   force =    17.98308007 -263.40101073  109.87488142
     atom   24 type  1   force =   -73.56315172   13.88645262   75.74819207
     atom   25 type  1   force =   -80.48973751  128.88970618  -58.47002811
     atom   26 type  1   force =   108.92052339   -9.18695079  -76.75952444
     atom   27 type  1   force =   -90.65087544  115.55206748  -61.20645714
     The core correction contribution to forces
     atom    1 type  1   force =    -0.07591331    0.02363226   -0.00108775
     atom    2 type  1   force =    -0.00871676    0.11385034   -0.03124466
     atom    3 type  1   force =     0.00421386    0.01305086   -0.00117637
     atom    4 type  1   force =    -0.04053123   -0.00792301   -0.00040989
     atom    5 type  1   force =     0.09301428   -0.01164891   -0.00146807
     atom    6 type  1   force =    -0.03800986    0.09003013   -0.02466980
     atom    7 type  1   force =     0.04162988   -0.00435146    0.00071490
     atom    8 type  1   force =     0.02027322   -0.07796197    0.02183052
     atom    9 type  1   force =     0.01666084   -0.14453952    0.03334212
     atom   10 type  1   force =    -0.01524017    0.00665809    0.00077711
     atom   11 type  1   force =     0.01131999   -0.01750966    0.00016646
     atom   12 type  1   force =    -0.01896698    0.01404375    0.00015360
     atom   13 type  1   force =    -0.05386467    0.06946134   -0.02917091
     atom   14 type  1   force =    -0.00203075    0.01133921   -0.00066615
     atom   15 type  1   force =    -0.05000812   -0.00798995   -0.00002685
     atom   16 type  1   force =     0.00700905   -0.01042285   -0.00027780
     atom   17 type  1   force =    -0.03623953    0.09299028   -0.02293887
     atom   18 type  1   force =     0.04332173    0.06669988   -0.00379690
     atom   19 type  1   force =     0.03948694   -0.00346539    0.00204916
     atom   20 type  1   force =     0.01046353    0.00324013    0.00148178
     atom   21 type  1   force =     0.02353490   -0.08285148    0.02323636
     atom   22 type  1   force =     0.02837545   -0.01624469    0.00281418
     atom   23 type  1   force =     0.01253724   -0.14745244    0.03351772
     atom   24 type  1   force =    -0.03014046    0.00860563    0.00513671
     atom   25 type  1   force =    -0.01119708    0.01412850   -0.00330596
     atom   26 type  1   force =     0.04379981   -0.01868868   -0.00481177
     atom   27 type  1   force =    -0.03435647    0.02535121   -0.00294755
     The Hubbard contrib.    to forces
     atom    1 type  1   force =     0.00000000    0.00000000    0.00000000
     atom    2 type  1   force =     0.00000000    0.00000000    0.00000000
     atom    3 type  1   force =     0.00000000    0.00000000    0.00000000
     atom    4 type  1   force =     0.00000000    0.00000000    0.00000000
     atom    5 type  1   force =     0.00000000    0.00000000    0.00000000
     atom    6 type  1   force =     0.00000000    0.00000000    0.00000000
     atom    7 type  1   force =     0.00000000    0.00000000    0.00000000
     atom    8 type  1   force =     0.00000000    0.00000000    0.00000000
     atom    9 type  1   force =     0.00000000    0.00000000    0.00000000
     atom   10 type  1   force =     0.00000000    0.00000000    0.00000000
     atom   11 type  1   force =     0.00000000    0.00000000    0.00000000
     atom   12 type  1   force =     0.00000000    0.00000000    0.00000000
     atom   13 type  1   force =     0.00000000    0.00000000    0.00000000
     atom   14 type  1   force =     0.00000000    0.00000000    0.00000000
     atom   15 type  1   force =     0.00000000    0.00000000    0.00000000
     atom   16 type  1   force =     0.00000000    0.00000000    0.00000000
     atom   17 type  1   force =     0.00000000    0.00000000    0.00000000
     atom   18 type  1   force =     0.00000000    0.00000000    0.00000000
     atom   19 type  1   force =     0.00000000    0.00000000    0.00000000
     atom   20 type  1   force =     0.00000000    0.00000000    0.00000000
     atom   21 type  1   force =     0.00000000    0.00000000    0.00000000
     atom   22 type  1   force =     0.00000000    0.00000000    0.00000000
     atom   23 type  1   force =     0.00000000    0.00000000    0.00000000
     atom   24 type  1   force =     0.00000000    0.00000000    0.00000000
     atom   25 type  1   force =     0.00000000    0.00000000    0.00000000
     atom   26 type  1   force =     0.00000000    0.00000000    0.00000000
     atom   27 type  1   force =     0.00000000    0.00000000    0.00000000
     The SCF correction term to forces
     atom    1 type  1   force =    -0.00005991    0.00000401    0.00001538
     atom    2 type  1   force =    -0.00008740   -0.00007699    0.00001279
     atom    3 type  1   force =    -0.00005939    0.00016252    0.00001459
     atom    4 type  1   force =    -0.00007851    0.00002445    0.00001113
     atom    5 type  1   force =     0.00018591    0.00006754    0.00001759
     atom    6 type  1   force =     0.00005652    0.00012560    0.00000998
     atom    7 type  1   force =     0.00003728    0.00009533    0.00001055
     atom    8 type  1   force =    -0.00003598    0.00004284    0.00001655
     atom    9 type  1   force =    -0.00001373   -0.00014625    0.00003026
     atom   10 type  1   force =     0.00020534   -0.00011778    0.00001353
     atom   11 type  1   force =    -0.00018213   -0.00001196    0.00001196
     atom   12 type  1   force =    -0.00024386   -0.00010338    0.00000955
     atom   13 type  1   force =     0.00001484   -0.00016857    0.00002654
     atom   14 type  1   force =     0.00006378   -0.00006598    0.00001558
     atom   15 type  1   force =     0.00004728   -0.00019407    0.00002572
     atom   16 type  1   force =    -0.00008294   -0.00006430    0.00001178
     atom   17 type  1   force =    -0.00004666    0.00000133    0.00000233
     atom   18 type  1   force =    -0.00003968   -0.00013996    0.00001944
     atom   19 type  1   force =     0.00017853   -0.00008130    0.00001796
     atom   20 type  1   force =     0.00004902    0.00003744    0.00002067
     atom   21 type  1   force =     0.00002090   -0.00001197    0.00001914
     atom   22 type  1   force =    -0.00020090   -0.00000491   -0.00000089
     atom   23 type  1   force =    -0.00003597   -0.00018794    0.00000395
     atom   24 type  1   force =     0.00009369    0.00003630   -0.00000233
     atom   25 type  1   force =    -0.00011457    0.00001670    0.00000412
     atom   26 type  1   force =     0.00002743    0.00027278    0.00006285
     atom   27 type  1   force =     0.00023844    0.00025850    0.00004388

     Total force =   442.711291     Total SCF correction =     0.000879

     Computing stress (Cartesian axis) and pressure

          total   stress  (Ry/bohr**3)                   (kbar)     P=    14437.80
   0.10499974  -0.02508184   0.00738165        15445.99    -3689.67     1085.88
  -0.02508184   0.18302884  -0.02973845        -3689.67    26924.47    -4374.68
   0.00738165  -0.02973845   0.00641002         1085.88    -4374.68      942.95

     kinetic stress (kbar)  26838.49   -177.19     50.59
                             -177.19  27716.06   -197.16
                               50.59   -197.16  27170.47

     local   stress (kbar)**********  -3190.28  -5181.40
                            -3190.28**********  23089.61
                            -5181.40  23089.612418964.51

     nonloc. stress (kbar)  14419.37    191.48    -44.42
                              191.48  13986.55    123.08
                              -44.42    123.08  15607.59

     hartree stress (kbar)1166132.14   2121.35   1699.49
                             2121.351155406.90  -8390.17
                             1699.49  -8390.17**********

     exc-cor stress (kbar)  -8347.61     -1.30      1.01
                               -1.30  -8351.22     -3.05
                                1.01     -3.05  -8401.24

     corecor stress (kbar)  -1487.74     -0.93      0.13
                               -0.93  -1484.48     -0.13
                                0.13     -0.13  -1484.61

     ewald   stress (kbar)1160943.20  -2632.81   4560.47
                            -2632.811154456.07 -18996.86
                             4560.47 -18996.86**********

     hubbard stress (kbar)      0.00      0.00      0.00
                                0.00      0.00      0.00
                                0.00      0.00      0.00

     london  stress (kbar)      0.00      0.00      0.00
                                0.00      0.00      0.00
                                0.00      0.00      0.00

     DFT-D3  stress (kbar)      0.00      0.00      0.00
                                0.00      0.00      0.00
                                0.00      0.00      0.00

     XDM     stress (kbar)      0.00      0.00      0.00
                                0.00      0.00      0.00
                                0.00      0.00      0.00

     dft-nl  stress (kbar)      0.00      0.00      0.00
                                0.00      0.00      0.00
                                0.00      0.00      0.00

     TS-vdW  stress (kbar)      0.00      0.00      0.00
                                0.00      0.00      0.00
                                0.00      0.00      0.00

     Writing output data file /tmp//ni_111_slab+vacuum_scf.save/

     General routines

     Parallel routines

   This run was terminated on:  19: 6:10   2Aug2022

   JOB DONE.