     Program PWSCF v.6.5 starts on  6Aug2022 at  0:26:41

     R & G space division:  proc/nbgrp/npool/nimage =       8
     Waiting for input...
     Reading input from standard input

     Current dimensions of program PWSCF are:
     Max number of different atomic species (ntypx) = 10
     Max number of k-points (npk) =  40000
     Max angular momentum in pseudopotentials (lmaxx) =  3
               file O.pbesol-n-kjpaw_psl.0.1.UPF: wavefunction(s)  2P renormalized

     bravais-lattice index     =            9
     lattice parameter (alat)  =      13.7761  a.u.
     unit-cell volume          =    5844.0458 (a.u.)^3
     number of atoms/cell      =           36
     number of atomic types    =            2
     number of electrons       =       288.00
     number of Kohn-Sham states=          173
     kinetic-energy cutoff     =      25.0000  Ry
     charge density cutoff     =     225.0000  Ry
     convergence threshold     =      1.0E-06
     mixing beta               =       0.4000
     number of iterations used =            8  plain     mixing
     Exchange-correlation= SLA  PW   PSX  PSC
                           (   1   4  10   8   0   0   0)

     celldm(1)=  13.776104  celldm(2)=   1.732058  celldm(3)=   2.581084
     celldm(4)=   0.000000  celldm(5)=   0.000000  celldm(6)=   0.000000

     crystal axes: (cart. coord. in units of alat)
               a(1) = (   0.500000   0.866029   0.000000 )
               a(2) = (  -0.500000   0.866029   0.000000 )
               a(3) = (   0.000000   0.000000   2.581084 )

     reciprocal axes: (cart. coord. in units 2 pi/alat)
               b(1) = (  1.000000  0.577348  0.000000 )
               b(2) = ( -1.000000  0.577348  0.000000 )
               b(3) = (  0.000000  0.000000  0.387434 )

     PseudoPot. # 1 for O  read from file:
     /home/zczlx99/q-e/pseudo/DFT/O.pbesol-n-kjpaw_psl.0.1.UPF
     MD5 check sum: 81d73d1479e654e5638b0319f0d6c2c7
     Pseudo is Projector augmented-wave + core cor, Zval =  6.0
     Generated using "atomic" code by A. Dal Corso v.6.0 svn rev. 13079
     Shape of augmentation charge: BESSEL
     Using radial grid of 1095 points,  4 beta functions with:
                l(1) =   0
                l(2) =   0
                l(3) =   1
                l(4) =   1
     Q(r) pseudized with 0 coefficients

     PseudoPot. # 2 for Zr read from file:
     /home/zczlx99/q-e/pseudo/DFT/zr_pbesol_v1.uspp.F.UPF
     MD5 check sum: f29f2a20533738a515abe666fee35838
     Pseudo is Ultrasoft + core correction, Zval = 12.0
     Generated by new atomic code, or converted to UPF format
     Using radial grid of  887 points,  6 beta functions with:
                l(1) =   0
                l(2) =   0
                l(3) =   1
                l(4) =   1
                l(5) =   2
                l(6) =   2
     Q(r) pseudized with  6 coefficients,  rinner =    1.200   1.200   1.200
                                                       1.200   1.200

     atomic species   valence    mass     pseudopotential
        O              6.00    15.99940     O ( 1.00)
        Zr            12.00    91.22400     Zr( 1.00)

     Starting magnetic structure
     atomic species   magnetization
        O            0.200
        Zr           0.000

     No symmetry found

   Cartesian axes

     site n.     atom                  positions (alat units)
         1           Zr  tau(   1) = (   0.0780235   0.6822626   0.2267513  )
         2           Zr  tau(   2) = (   0.3248800   1.1098306   0.2267513  )
         3           Zr  tau(   3) = (   0.0843095   1.2632427   0.6298683  )
         4           Zr  tau(   4) = (  -0.1688335   0.8247861   0.6298683  )
         5           Zr  tau(   5) = (  -0.1625475   1.4057645   1.0329829  )
         6           Zr  tau(   6) = (  -0.4156905   0.9673080   1.0329829  )
         7           Zr  tau(   7) = (   0.3374529   0.8247853   0.6298683  )
         8           Zr  tau(   8) = (   0.0843095   0.3863278   0.6298683  )
         9           Zr  tau(   9) = (  -0.1688335   0.5397391   1.0329829  )
        10           Zr  tau(  10) = (   0.0780235   0.9673080   1.0329829  )
        11           Zr  tau(  11) = (   0.0843095   1.5482881   0.2267513  )
        12           Zr  tau(  12) = (  -0.1688335   1.1098314   0.2267513  )
        13           O   tau(  13) = (   0.0780235   0.6822626   0.5290897  )
        14           O   tau(  14) = (   0.3248800   1.1098306   0.5290897  )
        15           O   tau(  15) = (   0.0780235   0.6822626   1.1337641  )
        16           O   tau(  16) = (   0.3248800   1.1098306   1.1337641  )
        17           O   tau(  17) = (   0.0843095   1.2632427   0.3275325  )
        18           O   tau(  18) = (  -0.1688335   0.8247861   0.3275325  )
        19           O   tau(  19) = (  -0.1688335   0.5397391   0.1259726  )
        20           O   tau(  20) = (   0.0780235   0.9673080   0.1259726  )
        21           O   tau(  21) = (  -0.1688335   0.5397391   0.7306469  )
        22           O   tau(  22) = (   0.0780235   0.9673080   0.7306469  )
        23           O   tau(  23) = (   0.0843095   1.2632427   0.9322041  )
        24           O   tau(  24) = (  -0.1688335   0.8247861   0.9322041  )
        25           O   tau(  25) = (  -0.1625475   1.4057645   0.7306469  )
        26           O   tau(  26) = (  -0.4156905   0.9673080   0.7306469  )
        27           O   tau(  27) = (   0.0843095   1.5482881   0.5290897  )
        28           O   tau(  28) = (  -0.1688335   1.1098314   0.5290897  )
        29           O   tau(  29) = (   0.3374529   0.8247853   0.3275325  )
        30           O   tau(  30) = (   0.0843095   0.3863278   0.3275325  )
        31           O   tau(  31) = (   0.3374529   0.8247853   0.9322041  )
        32           O   tau(  32) = (   0.0843095   0.3863278   0.9322041  )
        33           O   tau(  33) = (   0.0843095   1.5482881   1.1337641  )
        34           O   tau(  34) = (  -0.1688335   1.1098314   1.1337641  )
        35           O   tau(  35) = (  -0.1625475   1.4057645   0.1259726  )
        36           O   tau(  36) = (  -0.4156905   0.9673080   0.1259726  )

     number of k points=     8  Gaussian smearing, width (Ry)=  0.0100
                       cart. coord. in units 2pi/alat
        k(    1) = (   0.0000000   0.0000000   0.0000000), wk =   0.1250000
        k(    2) = (   0.0000000   0.0000000  -0.1937171), wk =   0.1250000
        k(    3) = (   0.5000000  -0.2886740   0.0000000), wk =   0.1250000
        k(    4) = (   0.5000000  -0.2886740  -0.1937171), wk =   0.1250000
        k(    5) = (   0.0000000  -0.5773480   0.0000000), wk =   0.1250000
        k(    6) = (   0.0000000  -0.5773480  -0.1937171), wk =   0.1250000
        k(    7) = (  -0.5000000  -0.2886740   0.0000000), wk =   0.1250000
        k(    8) = (  -0.5000000  -0.2886740   0.1937171), wk =   0.1250000

     Check: negative core charge=   -0.000012

     Initial potential from superposition of free atoms

     starting charge  287.97630, renormalised to  288.00000
     Starting wfcs are  252 randomized atomic wfcs
     Checking if some PAW data can be deallocated...

     Self-consistent Calculation

     iteration #  1     ecut=    25.00 Ry     beta= 0.40
     Davidson diagonalization with overlap
     ethr =  1.00E-02,  avg # of iterations =  2.0

     total energy              =   -2174.91768063 Ry
     Harris-Foulkes estimate   =   -2179.36405229 Ry
     estimated scf accuracy    <       9.90555467 Ry

     total magnetization       =     0.00 Bohr mag/cell
     absolute magnetization    =     5.96 Bohr mag/cell

[...]

     iteration #  6     ecut=    25.00 Ry     beta= 0.40
     Davidson diagonalization with overlap
     c_bands:  1 eigenvalues not converged
     ethr =  1.98E-06,  avg # of iterations =  7.2

[...]

     total energy              =   -2177.55679104 Ry
     Harris-Foulkes estimate   =   -2177.55679036 Ry
     estimated scf accuracy    <       0.00000631 Ry

[...]

     iteration # 11     ecut=    25.00 Ry     beta= 0.40
     Davidson diagonalization with overlap
     ethr =  2.19E-09,  avg # of iterations =  2.9

     Magnetic moment per site:
     atom:    1    charge:    7.8112    magn:   -0.0001    constr:    0.0000
     atom:    2    charge:    7.8093    magn:   -0.0001    constr:    0.0000
     atom:    3    charge:    7.8268    magn:   -0.0000    constr:    0.0000
     atom:    4    charge:    7.8375    magn:   -0.0000    constr:    0.0000
     atom:    5    charge:    7.8093    magn:   -0.0001    constr:    0.0000
     atom:    6    charge:    7.8198    magn:   -0.0001    constr:    0.0000
     atom:    7    charge:    7.8267    magn:   -0.0000    constr:    0.0000
     atom:    8    charge:    7.8165    magn:   -0.0000    constr:    0.0000
     atom:    9    charge:    7.8151    magn:   -0.0001    constr:    0.0000
     atom:   10    charge:    7.8175    magn:   -0.0001    constr:    0.0000
     atom:   11    charge:    7.8263    magn:   -0.0001    constr:    0.0000
     atom:   12    charge:    7.8158    magn:   -0.0001    constr:    0.0000
     atom:   13    charge:    5.9405    magn:    0.0002    constr:    0.0000
     atom:   14    charge:    5.9571    magn:    0.0001    constr:    0.0000
     atom:   15    charge:    5.8487    magn:    0.0005    constr:    0.0000
     atom:   16    charge:    5.8291    magn:    0.0006    constr:    0.0000
     atom:   17    charge:    5.9668    magn:    0.0001    constr:    0.0000
     atom:   18    charge:    5.9882    magn:    0.0001    constr:    0.0000
     atom:   19    charge:    5.8494    magn:    0.0005    constr:    0.0000
     atom:   20    charge:    5.8684    magn:    0.0004    constr:    0.0000
     atom:   21    charge:    5.9601    magn:    0.0001    constr:    0.0000
     atom:   22    charge:    5.9424    magn:    0.0002    constr:    0.0000
     atom:   23    charge:    5.9667    magn:    0.0001    constr:    0.0000
     atom:   24    charge:    5.9883    magn:    0.0001    constr:    0.0000
     atom:   25    charge:    5.9583    magn:    0.0001    constr:    0.0000
     atom:   26    charge:    5.9796    magn:    0.0001    constr:    0.0000
     atom:   27    charge:    5.9816    magn:    0.0001    constr:    0.0000
     atom:   28    charge:    5.9603    magn:    0.0001    constr:    0.0000
     atom:   29    charge:    5.9664    magn:    0.0001    constr:    0.0000
     atom:   30    charge:    5.9459    magn:    0.0001    constr:    0.0000
     atom:   31    charge:    5.9671    magn:    0.0001    constr:    0.0000
     atom:   32    charge:    5.9468    magn:    0.0001    constr:    0.0000
     atom:   33    charge:    5.8702    magn:    0.0004    constr:    0.0000
     atom:   34    charge:    5.8496    magn:    0.0005    constr:    0.0000
     atom:   35    charge:    5.8293    magn:    0.0006    constr:    0.0000
     atom:   36    charge:    5.8503    magn:    0.0005    constr:    0.0000

     End of self-consistent calculation

 ------ SPIN UP ------------

          k = 0.0000 0.0000 0.0000 ( 12297 PWs)   bands (ev):

   -46.1545 -46.1522 -46.1185 -46.0476 -46.0051 -45.9982 -45.9900 -45.9764
   -45.9519 -45.8832 -45.8389 -45.7950 -24.5941 -24.5488 -24.5180 -24.4656
   -24.4471 -24.4420 -24.4039 -24.3855 -24.3673 -24.3456 -24.2919 -24.2000
   -24.1774 -24.1628 -24.1096 -24.1057 -24.0695 -24.0532 -24.0344 -24.0303
   -24.0265 -24.0039 -23.9855 -23.9754 -23.9628 -23.9492 -23.9436 -23.9254
   -23.8996 -23.8901 -23.8848 -23.8775 -23.8228 -23.7959 -23.7846 -23.7586
   -16.1845 -15.4399 -15.3934 -15.3585 -15.3292 -15.3091 -14.9294 -14.8943
   -14.8723 -14.7882 -14.7504 -14.7263 -14.6301 -14.5936 -14.5720 -14.4082
   -14.0689 -13.9717 -13.8924 -13.8518 -13.8112 -13.7463 -13.6271 -13.5704
    -3.4359  -3.4028  -3.3857  -2.9945  -2.9751  -2.5847  -2.2932  -2.2610
    -2.2406  -2.1817  -2.1780  -2.0594  -2.0235  -1.9803  -1.9522  -1.9309
    -1.9137  -1.8421  -1.8176  -1.4038  -1.3800  -1.3679  -1.3499  -1.3188
    -1.2982  -1.2586  -0.7577  -0.7327  -0.6954  -0.1328  -0.1267  -0.1038
    -0.0308   0.1208   0.1293   0.1712   0.1823   0.1904   0.2455   0.2883
     0.3497   0.3703   0.5131   0.5163   0.5315   0.5448   0.5563   0.6016
     0.6158   0.6560   0.6588   0.6879   0.7251   0.7800   0.8672   1.0204
     1.0388   1.0522   1.1015   1.2405   1.2843   1.3440   1.3736   1.4092
     1.5792   1.6421   1.6615   1.7222   1.8367   2.0820   2.1143   2.1367
     5.4341   5.4659   5.7215   5.7687   5.7839   5.8365   5.8829   5.8857
     5.9444   5.9548   5.9871   6.0176   6.0249   6.0366   6.0649   6.0830
     6.0869   6.0949   6.3018   6.3530   6.3660   6.5258   6.5453   6.5657
     6.6875   6.9592   6.9983   7.0547   7.0888

[...]

          k =-0.5000-0.2887 0.0000 ( 12328 PWs)   bands (ev):

[...]

 ------ SPIN DOWN ----------

[...]

          k = 0.0000-0.5773-0.1937 ( 12336 PWs)   bands (ev):

[...]

          k =-0.5000-0.2887 0.1937 ( 12336 PWs)   bands (ev):

   -46.1538 -46.1521 -46.1182 -46.0483 -46.0054 -45.9986 -45.9902 -45.9764
   -45.9520 -45.8846 -45.8394 -45.7955 -24.4948 -24.4542 -24.4249 -24.3988
   -24.3747 -24.3695 -24.3353 -24.3101 -24.2826 -24.2605 -24.2523 -24.2388
   -24.2105 -24.1942 -24.1548 -24.1373 -24.1237 -24.1086 -24.1055 -24.0741
   -24.0621 -24.0401 -24.0311 -24.0160 -23.9876 -23.9690 -23.9643 -23.9534
   -23.9509 -23.9460 -23.9058 -23.8797 -23.8691 -23.8660 -23.8311 -23.8113
   -15.6893 -15.6155 -15.1399 -15.1131 -15.0387 -15.0276 -14.9864 -14.9473
   -14.9161 -14.8739 -14.7434 -14.7328 -14.6730 -14.5655 -14.5195 -14.5112
   -14.2344 -14.1342 -14.0241 -13.9668 -13.9586 -13.8984 -13.7316 -13.7271
    -2.7396  -2.6938  -2.6559  -2.6445  -2.6086  -2.5724  -2.5121  -2.4075
    -2.3758  -2.3063  -2.2044  -2.1638  -1.9306  -1.9211  -1.7672  -1.7065
    -1.6925  -1.6556  -1.5204  -1.5163  -1.3960  -1.3023  -1.2812  -1.2648
    -1.2465  -1.1930  -1.1186  -1.1071  -1.0953  -1.0679  -0.6134  -0.5980
    -0.5469  -0.5387  -0.3686  -0.3455  -0.2498  -0.2051  -0.0321   0.0625
     0.1509   0.1631   0.3261   0.3788   0.4463   0.4649   0.4989   0.5125
     0.5753   0.6016   0.9604   1.0385   1.0542   1.1135   1.1283   1.1638
     1.1840   1.2154   1.2735   1.3263   1.3364   1.3856   1.4498   1.4681
     1.5181   1.5478   1.6845   1.7187   1.7771   1.8495   1.9795   2.0019
     5.7098   5.7445   5.7773   5.8030   5.8474   5.8715   6.0186   6.0500
     6.0668   6.1038   6.1135   6.1462   6.1824   6.1912   6.2692   6.2969
     6.3353   6.3432   6.4345   6.4728   6.5141   6.5453   6.5767   6.6638
     6.9329   6.9676   7.0430   7.0470   7.1836

     the Fermi energy is     4.0950 ev

!    total energy              =   -2177.55679361 Ry
     Harris-Foulkes estimate   =   -2177.55679222 Ry
     estimated scf accuracy    <       0.00000076 Ry

     The total energy is the sum of the following terms:

     one-electron contribution =  -11341.57558341 Ry
     hartree contribution      =    5748.65364867 Ry
     xc contribution           =    -386.96297871 Ry
     ewald contribution        =    4021.17303593 Ry
     one-center paw contrib.   =    -218.84491610 Ry
     smearing contrib. (-TS)   =      -0.00000000 Ry

     total magnetization       =     0.00 Bohr mag/cell
     absolute magnetization    =     0.01 Bohr mag/cell

     convergence has been achieved in  11 iterations

     Writing output data file /tmp/ZrO2(111)+vacuum'.save/

     General routines

     Parallel routines

   This run was terminated on:   0:57:59   6Aug2022

   JOB DONE.